$*$$$$$$$$$$$$$$$$$$$$$$$$$$$$$$$$$$$$$$$$$$$$$$$$$$$$$$$$$$$$$$$$$
$*
$*                    Simcenter v2011.0.0.1903 Translator
$*                    for Simcenter Nastran version 2022.1
$*
$*             FEM FILE: C:\Users\nelek\OneDrive - Politechnika Warszawska\Praca_In¿ynierska\Model\Calculation\Mechanism_link\link_FEM_input_fem3.fem
$*             SIM FILE: C:\Users\nelek\OneDrive - Politechnika Warszawska\Praca_In¿ynierska\Model\COTS\Mechanical\Bearings\link_FEM_input_fem3_sim1.sim
$*        ANALYSIS TYPE: Structural
$*        SOLUTION NAME: Solution 1
$*        SOLUTION TYPE: SOL 105 Linear Buckling
$*
$*    SOLVER INPUT FILE: link_fem_input_fem3_sim1-solution_1.dat
$*        CREATION DATE: 23-Dec-2023
$*        CREATION TIME: 22:15:32
$*             HOSTNAME: SussySurface
$*      NASTRAN LICENSE: Desktop Bundle
$*
$*                UNITS: mm (milli-newton)
$*                      ... LENGTH : mm
$*                      ... TIME   : sec
$*                      ... MASS   : kilogram (kg)
$*                      ... TEMPERATURE : deg Celsius
$*                      ... FORCE  : milli-newton
$*                      ... THERMAL ENERGY : mN-mm (micro-joule)
$*
$* IMPORTANT NOTE:
$*     This banner was generated by Simcenter and altering this 
$*     information may compromise the pre and post processing of results
$*
$*$$$$$$$$$$$$$$$$$$$$$$$$$$$$$$$$$$$$$$$$$$$$$$$$$$$$$$$$$$$$$$$$$
$*
$*$$$$$$$$$$$$$$$$$$$$$$$$$$$$$$$$$$$
$*
$* FILE MANAGEMENT
$*
$*$$$$$$$$$$$$$$$$$$$$$$$$$$$$$$$$$$$
$*
$*
$*$$$$$$$$$$$$$$$$$$$$$$$$$$$$$$$$$$$
$*
$* EXECUTIVE CONTROL
$*
$*$$$$$$$$$$$$$$$$$$$$$$$$$$$$$$$$$$$
$*
ID,NASTRAN,link_fem_input_fem3_sim1-solution_1
SOL 105
CEND
$*
$*$$$$$$$$$$$$$$$$$$$$$$$$$$$$$$$$$$$
$*
$* CASE CONTROL
$*
$*$$$$$$$$$$$$$$$$$$$$$$$$$$$$$$$$$$$
$*
ECHO = NONE
SPC = 100
OUTPUT
DISPLACEMENT(PLOT,REAL) = ALL
SPCFORCES(PLOT,REAL) = ALL
STRESS(PLOT,REAL,VONMISES,CENTER) = ALL
$*  Step: Subcase - Statics
SUBCASE 1
  LABEL = Subcase - Statics
  LOAD = 3
$*  Step: Subcase - Buckling Method
SUBCASE 2
  LABEL = Subcase - Buckling Method
  STATSUB(BUCKLING) = 1
  METHOD = 102
$*
$*$$$$$$$$$$$$$$$$$$$$$$$$$$$$$$$$$$$
$*
$* BULK DATA
$*
$*$$$$$$$$$$$$$$$$$$$$$$$$$$$$$$$$$$$
$*
BEGIN BULK
$*
$* SOLUTION CARDS
$*
$*  Modeling Object: Real Eigenvalue - Lanczos1
EIGRL        102                      10       0       7            MASS
$*
$* PARAM CARDS
$*
PARAM      K6ROT100.0000
PARAM     OIBULK     YES
PARAM    OMACHPR     YES
PARAM       POST      -2
PARAM    POSTEXT     YES
PARAM    UNITSYS   MN-MM
$*
$* GRID CARDS
$*
GRID*                  1               0-2.255344902E+010.0000000000E+00+
*       3.9971407404E+00               0
GRID*                  2               0-2.200000000E+010.0000000000E+00+
*       3.9998435573E+00               0
GRID*                  3               0-2.150000000E+010.0000000000E+00+
*       4.0000000000E+00               0
GRID*                  4               0-2.100000000E+010.0000000000E+00+
*       4.0000000000E+00               0
GRID*                  5               0-2.050000000E+010.0000000000E+00+
*       4.0000000000E+00               0
GRID*                  6               0-2.000000000E+010.0000000000E+00+
*       4.0000000000E+00               0
GRID*                  7               0-1.950000000E+010.0000000000E+00+
*       4.0000000000E+00               0
GRID*                  8               0-1.900000000E+010.0000000000E+00+
*       4.0000000000E+00               0
GRID*                  9               0-1.850000000E+010.0000000000E+00+
*       4.0000000000E+00               0
GRID*                 10               0-1.800000000E+010.0000000000E+00+
*       4.0000000000E+00               0
GRID*                 11               0-1.750000000E+010.0000000000E+00+
*       4.0000000000E+00               0
GRID*                 12               0-1.700000000E+010.0000000000E+00+
*       4.0000000000E+00               0
GRID*                 13               0-1.650000000E+010.0000000000E+00+
*       4.0000000000E+00               0
GRID*                 14               0-1.600000000E+010.0000000000E+00+
*       4.0000000000E+00               0
GRID*                 15               0-1.550000000E+010.0000000000E+00+
*       4.0000000000E+00               0
GRID*                 16               0-1.500000000E+010.0000000000E+00+
*       4.0000000000E+00               0
GRID*                 17               0-1.450000000E+010.0000000000E+00+
*       4.0000000000E+00               0
GRID*                 18               0-1.400000000E+010.0000000000E+00+
*       4.0000000000E+00               0
GRID*                 19               0-1.350000000E+010.0000000000E+00+
*       4.0000000000E+00               0
GRID*                 20               0-1.300000000E+010.0000000000E+00+
*       4.0000000000E+00               0
GRID*                 21               0-1.250000000E+010.0000000000E+00+
*       4.0000000000E+00               0
GRID*                 22               0-1.200000000E+010.0000000000E+00+
*       4.0000000000E+00               0
GRID*                 23               0-1.150000000E+010.0000000000E+00+
*       4.0000000000E+00               0
GRID*                 24               0-1.100000000E+010.0000000000E+00+
*       4.0000000000E+00               0
GRID*                 25               0-1.050000000E+010.0000000000E+00+
*       4.0000000000E+00               0
GRID*                 26               0-1.000000000E+010.0000000000E+00+
*       4.0000000000E+00               0
GRID*                 27               0-9.500000000E+000.0000000000E+00+
*       4.0000000000E+00               0
GRID*                 28               0-9.000000000E+000.0000000000E+00+
*       4.0000000000E+00               0
GRID*                 29               0-8.500000000E+000.0000000000E+00+
*       4.0000000000E+00               0
GRID*                 30               0-8.000000000E+000.0000000000E+00+
*       4.0000000000E+00               0
GRID*                 31               0-7.500000000E+000.0000000000E+00+
*       4.0000000000E+00               0
GRID*                 32               0-7.000000000E+000.0000000000E+00+
*       4.0000000000E+00               0
GRID*                 33               0-6.500000000E+000.0000000000E+00+
*       4.0000000000E+00               0
GRID*                 34               0-6.000000000E+000.0000000000E+00+
*       4.0000000000E+00               0
GRID*                 35               0-5.500000000E+000.0000000000E+00+
*       4.0000000000E+00               0
GRID*                 36               0-5.000000000E+000.0000000000E+00+
*       4.0000000000E+00               0
GRID*                 37               0-4.500000000E+000.0000000000E+00+
*       4.0000000000E+00               0
GRID*                 38               0-4.000000000E+000.0000000000E+00+
*       4.0000000000E+00               0
GRID*                 39               0-3.500000000E+000.0000000000E+00+
*       4.0000000000E+00               0
GRID*                 40               0-3.000000000E+000.0000000000E+00+
*       4.0000000000E+00               0
GRID*                 41               0-2.500000000E+000.0000000000E+00+
*       4.0000000000E+00               0
GRID*                 42               0-2.000000000E+000.0000000000E+00+
*       4.0000000000E+00               0
GRID*                 43               0-1.500000000E+000.0000000000E+00+
*       4.0000000000E+00               0
GRID*                 44               0-1.000000000E+000.0000000000E+00+
*       4.0000000000E+00               0
GRID*                 45               0-5.000000000E-010.0000000000E+00+
*       4.0000000000E+00               0
GRID*                 46               0-3.122502257E-150.0000000000E+00+
*       4.0000000000E+00               0
GRID*                 47               05.0000000000E-010.0000000000E+00+
*       4.0000000000E+00               0
GRID*                 48               01.0000000000E+000.0000000000E+00+
*       4.0000000000E+00               0
GRID*                 49               01.5000000000E+000.0000000000E+00+
*       4.0000000000E+00               0
GRID*                 50               02.0000000000E+000.0000000000E+00+
*       4.0000000000E+00               0
GRID*                 51               02.5000000000E+000.0000000000E+00+
*       4.0000000000E+00               0
GRID*                 52               03.0000000000E+000.0000000000E+00+
*       4.0000000000E+00               0
GRID*                 53               03.5000000000E+000.0000000000E+00+
*       4.0000000000E+00               0
GRID*                 54               04.0000000000E+000.0000000000E+00+
*       4.0000000000E+00               0
GRID*                 55               04.5000000000E+000.0000000000E+00+
*       4.0000000000E+00               0
GRID*                 56               05.0000000000E+000.0000000000E+00+
*       4.0000000000E+00               0
GRID*                 57               05.5000000000E+000.0000000000E+00+
*       4.0000000000E+00               0
GRID*                 58               06.0000000000E+000.0000000000E+00+
*       4.0000000000E+00               0
GRID*                 59               06.5000000000E+000.0000000000E+00+
*       4.0000000000E+00               0
GRID*                 60               07.0000000000E+000.0000000000E+00+
*       4.0000000000E+00               0
GRID*                 61               07.5000000000E+000.0000000000E+00+
*       4.0000000000E+00               0
GRID*                 62               08.0000000000E+000.0000000000E+00+
*       4.0000000000E+00               0
GRID*                 63               08.5000000000E+000.0000000000E+00+
*       4.0000000000E+00               0
GRID*                 64               09.0000000000E+000.0000000000E+00+
*       4.0000000000E+00               0
GRID*                 65               09.5000000000E+000.0000000000E+00+
*       4.0000000000E+00               0
GRID*                 66               01.0000000000E+010.0000000000E+00+
*       4.0000000000E+00               0
GRID*                 67               01.0500000000E+010.0000000000E+00+
*       4.0000000000E+00               0
GRID*                 68               01.1000000000E+010.0000000000E+00+
*       4.0000000000E+00               0
GRID*                 69               01.1500000000E+010.0000000000E+00+
*       4.0000000000E+00               0
GRID*                 70               01.2000000000E+010.0000000000E+00+
*       4.0000000000E+00               0
GRID*                 71               01.2500000000E+010.0000000000E+00+
*       4.0000000000E+00               0
GRID*                 72               01.3000000000E+010.0000000000E+00+
*       4.0000000000E+00               0
GRID*                 73               01.3500000000E+010.0000000000E+00+
*       4.0000000000E+00               0
GRID*                 74               01.4000000000E+010.0000000000E+00+
*       4.0000000000E+00               0
GRID*                 75               01.4500000000E+010.0000000000E+00+
*       4.0000000000E+00               0
GRID*                 76               01.5000000000E+010.0000000000E+00+
*       4.0000000000E+00               0
GRID*                 77               01.5500000000E+010.0000000000E+00+
*       4.0000000000E+00               0
GRID*                 78               01.6000000000E+010.0000000000E+00+
*       4.0000000000E+00               0
GRID*                 79               01.6500000000E+010.0000000000E+00+
*       4.0000000000E+00               0
GRID*                 80               01.7000000000E+010.0000000000E+00+
*       4.0000000000E+00               0
GRID*                 81               01.7500000000E+010.0000000000E+00+
*       4.0000000000E+00               0
GRID*                 82               01.8000000000E+010.0000000000E+00+
*       4.0000000000E+00               0
GRID*                 83               01.8500000000E+010.0000000000E+00+
*       4.0000000000E+00               0
GRID*                 84               01.9000000000E+010.0000000000E+00+
*       4.0000000000E+00               0
GRID*                 85               01.9500000000E+010.0000000000E+00+
*       4.0000000000E+00               0
GRID*                 86               02.0000000000E+010.0000000000E+00+
*       4.0000000000E+00               0
GRID*                 87               02.0500000000E+010.0000000000E+00+
*       4.0000000000E+00               0
GRID*                 88               02.1000000000E+010.0000000000E+00+
*       4.0000000000E+00               0
GRID*                 89               02.1500000000E+010.0000000000E+00+
*       4.0000000000E+00               0
GRID*                 90               02.2000000000E+010.0000000000E+00+
*       3.9998435573E+00               0
GRID*                 91               02.2482153344E+010.0000000000E+00+
*       3.9996871127E+00               0
GRID*                 92               02.3069374064E+010.0000000000E+00+
*       3.9600836229E+00               0
GRID*                 93               02.3627113293E+010.0000000000E+00+
*       3.8385954167E+00               0
GRID*                 94               02.4161929830E+010.0000000000E+00+
*       3.6391184645E+00               0
GRID*                 95               02.4662914315E+010.0000000000E+00+
*       3.3655606516E+00               0
GRID*                 96               02.5119868294E+010.0000000000E+00+
*       3.0234890464E+00               0
GRID*                 97               02.5523489059E+010.0000000000E+00+
*       2.6198681070E+00               0
GRID*                 98               02.5865560183E+010.0000000000E+00+
*       2.1629144613E+00               0
GRID*                 99               02.6139118800E+010.0000000000E+00+
*       1.6619304658E+00               0
GRID*                100               02.6338596013E+010.0000000000E+00+
*       1.1271128750E+00               0
GRID*                101               02.6459927492E+010.0000000000E+00+
*       5.6935146445E-01               0
GRID*                102               02.6500649934E+010.0000000000E+00+
*       0.0000000000E+00               0
GRID*                103               02.6459927492E+010.0000000000E+00+
*       -5.693514645E-01               0
GRID*                104               02.6338596013E+010.0000000000E+00+
*       -1.127112875E+00               0
GRID*                105               02.6139118800E+010.0000000000E+00+
*       -1.661930466E+00               0
GRID*                106               02.5865560183E+010.0000000000E+00+
*       -2.162914461E+00               0
GRID*                107               02.5523489059E+010.0000000000E+00+
*       -2.619868107E+00               0
GRID*                108               02.5119868294E+010.0000000000E+00+
*       -3.023489046E+00               0
GRID*                109               02.4662914315E+010.0000000000E+00+
*       -3.365560652E+00               0
GRID*                110               02.4161929830E+010.0000000000E+00+
*       -3.639118465E+00               0
GRID*                111               02.3627113293E+010.0000000000E+00+
*       -3.838595417E+00               0
GRID*                112               02.3069374064E+010.0000000000E+00+
*       -3.960083623E+00               0
GRID*                113               02.2553449022E+010.0000000000E+00+
*       -3.997140740E+00               0
GRID*                114               02.2000000000E+010.0000000000E+00+
*       -3.999843557E+00               0
GRID*                115               02.1500000000E+010.0000000000E+00+
*       -4.000000000E+00               0
GRID*                116               02.1000000000E+010.0000000000E+00+
*       -4.000000000E+00               0
GRID*                117               02.0500000000E+010.0000000000E+00+
*       -4.000000000E+00               0
GRID*                118               02.0000000000E+010.0000000000E+00+
*       -4.000000000E+00               0
GRID*                119               01.9500000000E+010.0000000000E+00+
*       -4.000000000E+00               0
GRID*                120               01.9000000000E+010.0000000000E+00+
*       -4.000000000E+00               0
GRID*                121               01.8500000000E+010.0000000000E+00+
*       -4.000000000E+00               0
GRID*                122               01.8000000000E+010.0000000000E+00+
*       -4.000000000E+00               0
GRID*                123               01.7500000000E+010.0000000000E+00+
*       -4.000000000E+00               0
GRID*                124               01.7000000000E+010.0000000000E+00+
*       -4.000000000E+00               0
GRID*                125               01.6500000000E+010.0000000000E+00+
*       -4.000000000E+00               0
GRID*                126               01.6000000000E+010.0000000000E+00+
*       -4.000000000E+00               0
GRID*                127               01.5500000000E+010.0000000000E+00+
*       -4.000000000E+00               0
GRID*                128               01.5000000000E+010.0000000000E+00+
*       -4.000000000E+00               0
GRID*                129               01.4500000000E+010.0000000000E+00+
*       -4.000000000E+00               0
GRID*                130               01.4000000000E+010.0000000000E+00+
*       -4.000000000E+00               0
GRID*                131               01.3500000000E+010.0000000000E+00+
*       -4.000000000E+00               0
GRID*                132               01.3000000000E+010.0000000000E+00+
*       -4.000000000E+00               0
GRID*                133               01.2500000000E+010.0000000000E+00+
*       -4.000000000E+00               0
GRID*                134               01.2000000000E+010.0000000000E+00+
*       -4.000000000E+00               0
GRID*                135               01.1500000000E+010.0000000000E+00+
*       -4.000000000E+00               0
GRID*                136               01.1000000000E+010.0000000000E+00+
*       -4.000000000E+00               0
GRID*                137               01.0500000000E+010.0000000000E+00+
*       -4.000000000E+00               0
GRID*                138               01.0000000000E+010.0000000000E+00+
*       -4.000000000E+00               0
GRID*                139               09.5000000000E+000.0000000000E+00+
*       -4.000000000E+00               0
GRID*                140               09.0000000000E+000.0000000000E+00+
*       -4.000000000E+00               0
GRID*                141               08.5000000000E+000.0000000000E+00+
*       -4.000000000E+00               0
GRID*                142               08.0000000000E+000.0000000000E+00+
*       -4.000000000E+00               0
GRID*                143               07.5000000000E+000.0000000000E+00+
*       -4.000000000E+00               0
GRID*                144               07.0000000000E+000.0000000000E+00+
*       -4.000000000E+00               0
GRID*                145               06.5000000000E+000.0000000000E+00+
*       -4.000000000E+00               0
GRID*                146               06.0000000000E+000.0000000000E+00+
*       -4.000000000E+00               0
GRID*                147               05.5000000000E+000.0000000000E+00+
*       -4.000000000E+00               0
GRID*                148               05.0000000000E+000.0000000000E+00+
*       -4.000000000E+00               0
GRID*                149               04.5000000000E+000.0000000000E+00+
*       -4.000000000E+00               0
GRID*                150               04.0000000000E+000.0000000000E+00+
*       -4.000000000E+00               0
GRID*                151               03.5000000000E+000.0000000000E+00+
*       -4.000000000E+00               0
GRID*                152               03.0000000000E+000.0000000000E+00+
*       -4.000000000E+00               0
GRID*                153               02.5000000000E+000.0000000000E+00+
*       -4.000000000E+00               0
GRID*                154               02.0000000000E+000.0000000000E+00+
*       -4.000000000E+00               0
GRID*                155               01.5000000000E+000.0000000000E+00+
*       -4.000000000E+00               0
GRID*                156               01.0000000000E+000.0000000000E+00+
*       -4.000000000E+00               0
GRID*                157               05.0000000000E-010.0000000000E+00+
*       -4.000000000E+00               0
GRID*                158               04.8849813084E-150.0000000000E+00+
*       -4.000000000E+00               0
GRID*                159               0-5.000000000E-010.0000000000E+00+
*       -4.000000000E+00               0
GRID*                160               0-1.000000000E+000.0000000000E+00+
*       -4.000000000E+00               0
GRID*                161               0-1.500000000E+000.0000000000E+00+
*       -4.000000000E+00               0
GRID*                162               0-2.000000000E+000.0000000000E+00+
*       -4.000000000E+00               0
GRID*                163               0-2.500000000E+000.0000000000E+00+
*       -4.000000000E+00               0
GRID*                164               0-3.000000000E+000.0000000000E+00+
*       -4.000000000E+00               0
GRID*                165               0-3.500000000E+000.0000000000E+00+
*       -4.000000000E+00               0
GRID*                166               0-4.000000000E+000.0000000000E+00+
*       -4.000000000E+00               0
GRID*                167               0-4.500000000E+000.0000000000E+00+
*       -4.000000000E+00               0
GRID*                168               0-5.000000000E+000.0000000000E+00+
*       -4.000000000E+00               0
GRID*                169               0-5.500000000E+000.0000000000E+00+
*       -4.000000000E+00               0
GRID*                170               0-6.000000000E+000.0000000000E+00+
*       -4.000000000E+00               0
GRID*                171               0-6.500000000E+000.0000000000E+00+
*       -4.000000000E+00               0
GRID*                172               0-7.000000000E+000.0000000000E+00+
*       -4.000000000E+00               0
GRID*                173               0-7.500000000E+000.0000000000E+00+
*       -4.000000000E+00               0
GRID*                174               0-8.000000000E+000.0000000000E+00+
*       -4.000000000E+00               0
GRID*                175               0-8.500000000E+000.0000000000E+00+
*       -4.000000000E+00               0
GRID*                176               0-9.000000000E+000.0000000000E+00+
*       -4.000000000E+00               0
GRID*                177               0-9.500000000E+000.0000000000E+00+
*       -4.000000000E+00               0
GRID*                178               0-1.000000000E+010.0000000000E+00+
*       -4.000000000E+00               0
GRID*                179               0-1.050000000E+010.0000000000E+00+
*       -4.000000000E+00               0
GRID*                180               0-1.100000000E+010.0000000000E+00+
*       -4.000000000E+00               0
GRID*                181               0-1.150000000E+010.0000000000E+00+
*       -4.000000000E+00               0
GRID*                182               0-1.200000000E+010.0000000000E+00+
*       -4.000000000E+00               0
GRID*                183               0-1.250000000E+010.0000000000E+00+
*       -4.000000000E+00               0
GRID*                184               0-1.300000000E+010.0000000000E+00+
*       -4.000000000E+00               0
GRID*                185               0-1.350000000E+010.0000000000E+00+
*       -4.000000000E+00               0
GRID*                186               0-1.400000000E+010.0000000000E+00+
*       -4.000000000E+00               0
GRID*                187               0-1.450000000E+010.0000000000E+00+
*       -4.000000000E+00               0
GRID*                188               0-1.500000000E+010.0000000000E+00+
*       -4.000000000E+00               0
GRID*                189               0-1.550000000E+010.0000000000E+00+
*       -4.000000000E+00               0
GRID*                190               0-1.600000000E+010.0000000000E+00+
*       -4.000000000E+00               0
GRID*                191               0-1.650000000E+010.0000000000E+00+
*       -4.000000000E+00               0
GRID*                192               0-1.700000000E+010.0000000000E+00+
*       -4.000000000E+00               0
GRID*                193               0-1.750000000E+010.0000000000E+00+
*       -4.000000000E+00               0
GRID*                194               0-1.800000000E+010.0000000000E+00+
*       -4.000000000E+00               0
GRID*                195               0-1.850000000E+010.0000000000E+00+
*       -4.000000000E+00               0
GRID*                196               0-1.900000000E+010.0000000000E+00+
*       -4.000000000E+00               0
GRID*                197               0-1.950000000E+010.0000000000E+00+
*       -4.000000000E+00               0
GRID*                198               0-2.000000000E+010.0000000000E+00+
*       -4.000000000E+00               0
GRID*                199               0-2.050000000E+010.0000000000E+00+
*       -4.000000000E+00               0
GRID*                200               0-2.100000000E+010.0000000000E+00+
*       -4.000000000E+00               0
GRID*                201               0-2.150000000E+010.0000000000E+00+
*       -4.000000000E+00               0
GRID*                202               0-2.200000000E+010.0000000000E+00+
*       -3.999843557E+00               0
GRID*                203               0-2.248215334E+010.0000000000E+00+
*       -3.999687113E+00               0
GRID*                204               0-2.306937406E+010.0000000000E+00+
*       -3.960083623E+00               0
GRID*                205               0-2.362711329E+010.0000000000E+00+
*       -3.838595417E+00               0
GRID*                206               0-2.416192983E+010.0000000000E+00+
*       -3.639118465E+00               0
GRID*                207               0-2.466291432E+010.0000000000E+00+
*       -3.365560652E+00               0
GRID*                208               0-2.511986829E+010.0000000000E+00+
*       -3.023489046E+00               0
GRID*                209               0-2.552348906E+010.0000000000E+00+
*       -2.619868107E+00               0
GRID*                210               0-2.586556018E+010.0000000000E+00+
*       -2.162914461E+00               0
GRID*                211               0-2.613911880E+010.0000000000E+00+
*       -1.661930466E+00               0
GRID*                212               0-2.633859601E+010.0000000000E+00+
*       -1.127112875E+00               0
GRID*                213               0-2.645992749E+010.0000000000E+00+
*       -5.693514645E-01               0
GRID*                214               0-2.650064993E+010.0000000000E+00+
*       -1.080526594E-15               0
GRID*                215               0-2.645992749E+010.0000000000E+00+
*       5.6935146445E-01               0
GRID*                216               0-2.633859601E+010.0000000000E+00+
*       1.1271128750E+00               0
GRID*                217               0-2.613911880E+010.0000000000E+00+
*       1.6619304658E+00               0
GRID*                218               0-2.586556018E+010.0000000000E+00+
*       2.1629144613E+00               0
GRID*                219               0-2.552348906E+010.0000000000E+00+
*       2.6198681070E+00               0
GRID*                220               0-2.511986829E+010.0000000000E+00+
*       3.0234890464E+00               0
GRID*                221               0-2.466291432E+010.0000000000E+00+
*       3.3655606516E+00               0
GRID*                222               0-2.416192983E+010.0000000000E+00+
*       3.6391184645E+00               0
GRID*                223               0-2.362711329E+010.0000000000E+00+
*       3.8385954167E+00               0
GRID*                224               0-2.306937406E+010.0000000000E+00+
*       3.9600836229E+00               0
GRID*                225               03.2500000016E+010.0000000000E+00+
*       -4.441372287E+00               0
GRID*                226               03.2011412309E+010.0000000000E+00+
*       -4.414415708E+00               0
GRID*                227               03.1528756079E+010.0000000000E+00+
*       -4.333874450E+00               0
GRID*                228               03.1057889151E+010.0000000000E+00+
*       -4.200726367E+00               0
GRID*                229               03.0604526830E+010.0000000000E+00+
*       -4.016586850E+00               0
GRID*                230               03.0174173569E+010.0000000000E+00+
*       -3.783690628E+00               0
GRID*                231               02.9772053450E+010.0000000000E+00+
*       -3.504866406E+00               0
GRID*                232               02.9403045140E+010.0000000000E+00+
*       -3.183498206E+00               0
GRID*                233               02.9071631043E+010.0000000000E+00+
*       -2.823485020E+00               0
GRID*                234               02.8781832535E+010.0000000000E+00+
*       -2.429199887E+00               0
GRID*                235               02.8537167565E+010.0000000000E+00+
*       -2.005427377E+00               0
GRID*                236               02.8340605439E+010.0000000000E+00+
*       -1.557311789E+00               0
GRID*                237               02.8194533116E+010.0000000000E+00+
*       -1.090292520E+00               0
GRID*                238               02.8100722382E+010.0000000000E+00+
*       -6.100382978E-01               0
GRID*                239               02.8060314491E+010.0000000000E+00+
*       -1.223791448E-01               0
GRID*                240               02.8073796704E+010.0000000000E+00+
*       3.6676533184E-01               0
GRID*                241               02.8141008308E+010.0000000000E+00+
*       8.5145910113E-01               0
GRID*                242               02.8261133397E+010.0000000000E+00+
*       1.3258156422E+00               0
GRID*                243               02.8432710387E+010.0000000000E+00+
*       1.7840779959E+00               0
GRID*                244               02.8653658662E+010.0000000000E+00+
*       2.2206862105E+00               0
GRID*                245               02.8921298155E+010.0000000000E+00+
*       2.6303370446E+00               0
GRID*                246               02.9232376606E+010.0000000000E+00+
*       3.0080591211E+00               0
GRID*                247               02.9583119874E+010.0000000000E+00+
*       3.3492677434E+00               0
GRID*                248               02.9969270384E+010.0000000000E+00+
*       3.6498213438E+00               0
GRID*                249               03.0386141014E+010.0000000000E+00+
*       3.9060700850E+00               0
GRID*                250               03.0828670126E+010.0000000000E+00+
*       4.1149045710E+00               0
GRID*                251               03.1291487148E+010.0000000000E+00+
*       4.2737902617E+00               0
GRID*                252               03.1768974466E+010.0000000000E+00+
*       4.3807977434E+00               0
GRID*                253               03.2255335123E+010.0000000000E+00+
*       4.4346275585E+00               0
GRID*                254               03.2744665143E+010.0000000000E+00+
*       4.4346275580E+00               0
GRID*                255               03.3231025750E+010.0000000000E+00+
*       4.3807975656E+00               0
GRID*                256               03.3708513019E+010.0000000000E+00+
*       4.2737901630E+00               0
GRID*                257               03.4171330043E+010.0000000000E+00+
*       4.1149044279E+00               0
GRID*                258               03.4613859291E+010.0000000000E+00+
*       3.9060698994E+00               0
GRID*                259               03.5030729880E+010.0000000000E+00+
*       3.6498208095E+00               0
GRID*                260               03.5416879823E+010.0000000000E+00+
*       3.3492672220E+00               0
GRID*                261               03.5767623413E+010.0000000000E+00+
*       3.0080592254E+00               0
GRID*                262               03.6078702691E+010.0000000000E+00+
*       2.6303364771E+00               0
GRID*                263               03.6346340076E+010.0000000000E+00+
*       2.2206857082E+00               0
GRID*                264               03.6567290678E+010.0000000000E+00+
*       1.7840792948E+00               0
GRID*                265               03.6738867662E+010.0000000000E+00+
*       1.3258151231E+00               0
GRID*                266               03.6858992157E+010.0000000000E+00+
*       8.5145864979E-01               0
GRID*                267               03.6926203286E+010.0000000000E+00+
*       3.6676504749E-01               0
GRID*                268               03.6939685522E+010.0000000000E+00+
*       -1.223793168E-01               0
GRID*                269               03.6899277544E+010.0000000000E+00+
*       -6.100374361E-01               0
GRID*                270               03.6805468765E+010.0000000000E+00+
*       -1.090293144E+00               0
GRID*                271               03.6659393997E+010.0000000000E+00+
*       -1.557312070E+00               0
GRID*                272               03.6462833267E+010.0000000000E+00+
*       -2.005427727E+00               0
GRID*                273               03.6218166949E+010.0000000000E+00+
*       -2.429199420E+00               0
GRID*                274               03.5928369743E+010.0000000000E+00+
*       -2.823485587E+00               0
GRID*                275               03.5596953936E+010.0000000000E+00+
*       -3.183497989E+00               0
GRID*                276               03.5227946609E+010.0000000000E+00+
*       -3.504865818E+00               0
GRID*                277               03.4825826545E+010.0000000000E+00+
*       -3.783690490E+00               0
GRID*                278               03.4395473156E+010.0000000000E+00+
*       -4.016586675E+00               0
GRID*                279               03.3942110891E+010.0000000000E+00+
*       -4.200726360E+00               0
GRID*                280               03.3471243891E+010.0000000000E+00+
*       -4.333874336E+00               0
GRID*                281               03.2988587744E+010.0000000000E+00+
*       -4.414415672E+00               0
GRID*                282               0-3.250000002E+010.0000000000E+00+
*       -4.441372287E+00               0
GRID*                283               0-3.298858774E+010.0000000000E+00+
*       -4.414415672E+00               0
GRID*                284               0-3.347124389E+010.0000000000E+00+
*       -4.333874336E+00               0
GRID*                285               0-3.394211089E+010.0000000000E+00+
*       -4.200726360E+00               0
GRID*                286               0-3.439547316E+010.0000000000E+00+
*       -4.016586675E+00               0
GRID*                287               0-3.482582655E+010.0000000000E+00+
*       -3.783690490E+00               0
GRID*                288               0-3.522794661E+010.0000000000E+00+
*       -3.504865818E+00               0
GRID*                289               0-3.559695394E+010.0000000000E+00+
*       -3.183497989E+00               0
GRID*                290               0-3.592836974E+010.0000000000E+00+
*       -2.823485587E+00               0
GRID*                291               0-3.621816695E+010.0000000000E+00+
*       -2.429199420E+00               0
GRID*                292               0-3.646283327E+010.0000000000E+00+
*       -2.005427727E+00               0
GRID*                293               0-3.665939400E+010.0000000000E+00+
*       -1.557312070E+00               0
GRID*                294               0-3.680546877E+010.0000000000E+00+
*       -1.090293144E+00               0
GRID*                295               0-3.689927754E+010.0000000000E+00+
*       -6.100374361E-01               0
GRID*                296               0-3.693968552E+010.0000000000E+00+
*       -1.223793168E-01               0
GRID*                297               0-3.692620329E+010.0000000000E+00+
*       3.6676504749E-01               0
GRID*                298               0-3.685899216E+010.0000000000E+00+
*       8.5145864979E-01               0
GRID*                299               0-3.673886766E+010.0000000000E+00+
*       1.3258151231E+00               0
GRID*                300               0-3.656729068E+010.0000000000E+00+
*       1.7840792948E+00               0
GRID*                301               0-3.634634008E+010.0000000000E+00+
*       2.2206857082E+00               0
GRID*                302               0-3.607870269E+010.0000000000E+00+
*       2.6303364771E+00               0
GRID*                303               0-3.576762341E+010.0000000000E+00+
*       3.0080592254E+00               0
GRID*                304               0-3.541687982E+010.0000000000E+00+
*       3.3492672220E+00               0
GRID*                305               0-3.503072988E+010.0000000000E+00+
*       3.6498208095E+00               0
GRID*                306               0-3.461385929E+010.0000000000E+00+
*       3.9060698994E+00               0
GRID*                307               0-3.417133004E+010.0000000000E+00+
*       4.1149044279E+00               0
GRID*                308               0-3.370851302E+010.0000000000E+00+
*       4.2737901630E+00               0
GRID*                309               0-3.323102575E+010.0000000000E+00+
*       4.3807975656E+00               0
GRID*                310               0-3.274466514E+010.0000000000E+00+
*       4.4346275580E+00               0
GRID*                311               0-3.225533512E+010.0000000000E+00+
*       4.4346275585E+00               0
GRID*                312               0-3.176897447E+010.0000000000E+00+
*       4.3807977434E+00               0
GRID*                313               0-3.129148715E+010.0000000000E+00+
*       4.2737902617E+00               0
GRID*                314               0-3.082867013E+010.0000000000E+00+
*       4.1149045710E+00               0
GRID*                315               0-3.038614101E+010.0000000000E+00+
*       3.9060700850E+00               0
GRID*                316               0-2.996927038E+010.0000000000E+00+
*       3.6498213438E+00               0
GRID*                317               0-2.958311987E+010.0000000000E+00+
*       3.3492677434E+00               0
GRID*                318               0-2.923237661E+010.0000000000E+00+
*       3.0080591211E+00               0
GRID*                319               0-2.892129815E+010.0000000000E+00+
*       2.6303370446E+00               0
GRID*                320               0-2.865365866E+010.0000000000E+00+
*       2.2206862105E+00               0
GRID*                321               0-2.843271039E+010.0000000000E+00+
*       1.7840779959E+00               0
GRID*                322               0-2.826113340E+010.0000000000E+00+
*       1.3258156422E+00               0
GRID*                323               0-2.814100831E+010.0000000000E+00+
*       8.5145910113E-01               0
GRID*                324               0-2.807379670E+010.0000000000E+00+
*       3.6676533184E-01               0
GRID*                325               0-2.806031449E+010.0000000000E+00+
*       -1.223791448E-01               0
GRID*                326               0-2.810072238E+010.0000000000E+00+
*       -6.100382978E-01               0
GRID*                327               0-2.819453312E+010.0000000000E+00+
*       -1.090292520E+00               0
GRID*                328               0-2.834060544E+010.0000000000E+00+
*       -1.557311789E+00               0
GRID*                329               0-2.853716757E+010.0000000000E+00+
*       -2.005427377E+00               0
GRID*                330               0-2.878183253E+010.0000000000E+00+
*       -2.429199887E+00               0
GRID*                331               0-2.907163104E+010.0000000000E+00+
*       -2.823485020E+00               0
GRID*                332               0-2.940304514E+010.0000000000E+00+
*       -3.183498206E+00               0
GRID*                333               0-2.977205345E+010.0000000000E+00+
*       -3.504866406E+00               0
GRID*                334               0-3.017417357E+010.0000000000E+00+
*       -3.783690628E+00               0
GRID*                335               0-3.060452683E+010.0000000000E+00+
*       -4.016586850E+00               0
GRID*                336               0-3.105788915E+010.0000000000E+00+
*       -4.200726367E+00               0
GRID*                337               0-3.152875608E+010.0000000000E+00+
*       -4.333874450E+00               0
GRID*                338               0-3.201141231E+010.0000000000E+00+
*       -4.414415708E+00               0
GRID*                339               03.2555116918E+010.0000000000E+00+
*       5.7026661060E+00               0
GRID*                340               03.2052467103E+010.0000000000E+00+
*       5.7014730268E+00               0
GRID*                341               03.1546207368E+010.0000000000E+00+
*       5.6853476713E+00               0
GRID*                342               03.1039419861E+010.0000000000E+00+
*       5.6579232243E+00               0
GRID*                343               03.0529812131E+010.0000000000E+00+
*       5.6205697438E+00               0
GRID*                344               03.0011888370E+010.0000000000E+00+
*       5.5771306198E+00               0
GRID*                345               02.9480636927E+010.0000000000E+00+
*       5.5398933321E+00               0
GRID*                346               02.8953610272E+010.0000000000E+00+
*       5.5358314448E+00               0
GRID*                347               02.8447384387E+010.0000000000E+00+
*       5.5479880505E+00               0
GRID*                348               02.7958212445E+010.0000000000E+00+
*       5.5594693360E+00               0
GRID*                349               02.7479616562E+010.0000000000E+00+
*       5.5724317396E+00               0
GRID*                350               02.7012603046E+010.0000000000E+00+
*       5.5800726177E+00               0
GRID*                351               02.6548579914E+010.0000000000E+00+
*       5.5658281480E+00               0
GRID*                352               02.6052684717E+010.0000000000E+00+
*       5.5203490873E+00               0
GRID*                353               02.5526490593E+010.0000000000E+00+
*       5.5377971640E+00               0
GRID*                354               02.5022010218E+010.0000000000E+00+
*       5.5564750018E+00               0
GRID*                355               02.4533509452E+010.0000000000E+00+
*       5.5663573778E+00               0
GRID*                356               02.4046567879E+010.0000000000E+00+
*       5.5541909904E+00               0
GRID*                357               02.3521455535E+010.0000000000E+00+
*       5.5151310596E+00               0
GRID*                358               02.2991543352E+010.0000000000E+00+
*       5.5566416067E+00               0
GRID*                359               02.2490359521E+010.0000000000E+00+
*       5.5779213389E+00               0
GRID*                360               02.1994203039E+010.0000000000E+00+
*       5.5865160135E+00               0
GRID*                361               02.1497088118E+010.0000000000E+00+
*       5.5896484501E+00               0
GRID*                362               02.0998651022E+010.0000000000E+00+
*       5.5906817138E+00               0
GRID*                363               02.0499401489E+010.0000000000E+00+
*       5.5909383127E+00               0
GRID*                364               01.9999739513E+010.0000000000E+00+
*       5.5909092004E+00               0
GRID*                365               01.9499887162E+010.0000000000E+00+
*       5.5908337985E+00               0
GRID*                366               01.8999951199E+010.0000000000E+00+
*       5.5909651570E+00               0
GRID*                367               01.8499979183E+010.0000000000E+00+
*       5.5911090247E+00               0
GRID*                368               01.7999991475E+010.0000000000E+00+
*       5.5911518410E+00               0
GRID*                369               01.7499996863E+010.0000000000E+00+
*       5.5909836409E+00               0
GRID*                370               01.6999999092E+010.0000000000E+00+
*       5.5909921471E+00               0
GRID*                371               01.6499999935E+010.0000000000E+00+
*       5.5910369435E+00               0
GRID*                372               01.6000000194E+010.0000000000E+00+
*       5.5910700028E+00               0
GRID*                373               01.5500000224E+010.0000000000E+00+
*       5.5910878651E+00               0
GRID*                374               01.5000000180E+010.0000000000E+00+
*       5.5910985923E+00               0
GRID*                375               01.4500000124E+010.0000000000E+00+
*       5.5911169726E+00               0
GRID*                376               01.4000000078E+010.0000000000E+00+
*       5.5911578009E+00               0
GRID*                377               01.3500000046E+010.0000000000E+00+
*       5.5912088543E+00               0
GRID*                378               01.3000000026E+010.0000000000E+00+
*       5.5911964813E+00               0
GRID*                379               01.2500000014E+010.0000000000E+00+
*       5.5910013396E+00               0
GRID*                380               01.2000000007E+010.0000000000E+00+
*       5.5909987171E+00               0
GRID*                381               01.1500000004E+010.0000000000E+00+
*       5.5910392887E+00               0
GRID*                382               01.1000000002E+010.0000000000E+00+
*       5.5910708076E+00               0
GRID*                383               01.0500000001E+010.0000000000E+00+
*       5.5910880406E+00               0
GRID*                384               01.0000000000E+010.0000000000E+00+
*       5.5910960286E+00               0
GRID*                385               09.5000000002E+000.0000000000E+00+
*       5.5910993711E+00               0
GRID*                386               09.0000000001E+000.0000000000E+00+
*       5.5911006725E+00               0
GRID*                387               08.5000000000E+000.0000000000E+00+
*       5.5911011522E+00               0
GRID*                388               08.0000000000E+000.0000000000E+00+
*       5.5911013214E+00               0
GRID*                389               07.5000000000E+000.0000000000E+00+
*       5.5911013790E+00               0
GRID*                390               07.0000000000E+000.0000000000E+00+
*       5.5911013982E+00               0
GRID*                391               06.5000000000E+000.0000000000E+00+
*       5.5911014051E+00               0
GRID*                392               06.0000000000E+000.0000000000E+00+
*       5.5911014112E+00               0
GRID*                393               05.5000000000E+000.0000000000E+00+
*       5.5911014333E+00               0
GRID*                394               05.0000000000E+000.0000000000E+00+
*       5.5911015317E+00               0
GRID*                395               04.5000000000E+000.0000000000E+00+
*       5.5911040850E+00               0
GRID*                396               04.0000000000E+000.0000000000E+00+
*       5.5911190554E+00               0
GRID*                397               03.5000000000E+000.0000000000E+00+
*       5.5911585561E+00               0
GRID*                398               03.0000000000E+000.0000000000E+00+
*       5.5912091187E+00               0
GRID*                399               02.5000000000E+000.0000000000E+00+
*       5.5911965714E+00               0
GRID*                400               02.0000000000E+000.0000000000E+00+
*       5.5910013689E+00               0
GRID*                401               01.5000000000E+000.0000000000E+00+
*       5.5909987265E+00               0
GRID*                402               01.0000000000E+000.0000000000E+00+
*       5.5910392917E+00               0
GRID*                403               05.0000000000E-010.0000000000E+00+
*       5.5910708086E+00               0
GRID*                404               0-2.991787373E-120.0000000000E+00+
*       5.5910880409E+00               0
GRID*                405               0-5.000000000E-010.0000000000E+00+
*       5.5910960287E+00               0
GRID*                406               0-1.000000000E+000.0000000000E+00+
*       5.5910993711E+00               0
GRID*                407               0-1.500000000E+000.0000000000E+00+
*       5.5911006725E+00               0
GRID*                408               0-2.000000000E+000.0000000000E+00+
*       5.5911011522E+00               0
GRID*                409               0-2.500000000E+000.0000000000E+00+
*       5.5911013214E+00               0
GRID*                410               0-3.000000000E+000.0000000000E+00+
*       5.5911013790E+00               0
GRID*                411               0-3.500000000E+000.0000000000E+00+
*       5.5911013980E+00               0
GRID*                412               0-4.000000000E+000.0000000000E+00+
*       5.5911014040E+00               0
GRID*                413               0-4.500000000E+000.0000000000E+00+
*       5.5911014059E+00               0
GRID*                414               0-5.000000000E+000.0000000000E+00+
*       5.5911014065E+00               0
GRID*                415               0-5.500000001E+000.0000000000E+00+
*       5.5911014066E+00               0
GRID*                416               0-6.000000001E+000.0000000000E+00+
*       5.5911014065E+00               0
GRID*                417               0-6.500000002E+000.0000000000E+00+
*       5.5911014063E+00               0
GRID*                418               0-7.000000003E+000.0000000000E+00+
*       5.5911014060E+00               0
GRID*                419               0-7.500000005E+000.0000000000E+00+
*       5.5911014055E+00               0
GRID*                420               0-8.000000008E+000.0000000000E+00+
*       5.5911014047E+00               0
GRID*                421               0-8.500000013E+000.0000000000E+00+
*       5.5911014034E+00               0
GRID*                422               0-9.000000020E+000.0000000000E+00+
*       5.5911014014E+00               0
GRID*                423               0-9.500000031E+000.0000000000E+00+
*       5.5911013981E+00               0
GRID*                424               0-1.000000005E+010.0000000000E+00+
*       5.5911013929E+00               0
GRID*                425               0-1.050000008E+010.0000000000E+00+
*       5.5911013847E+00               0
GRID*                426               0-1.100000012E+010.0000000000E+00+
*       5.5911013717E+00               0
GRID*                427               0-1.150000018E+010.0000000000E+00+
*       5.5911013514E+00               0
GRID*                428               0-1.200000028E+010.0000000000E+00+
*       5.5911013200E+00               0
GRID*                429               0-1.250000042E+010.0000000000E+00+
*       5.5911012725E+00               0
GRID*                430               0-1.300000063E+010.0000000000E+00+
*       5.5911012027E+00               0
GRID*                431               0-1.350000095E+010.0000000000E+00+
*       5.5911011045E+00               0
GRID*                432               0-1.400000144E+010.0000000000E+00+
*       5.5911009722E+00               0
GRID*                433               0-1.450000229E+010.0000000000E+00+
*       5.5911007980E+00               0
GRID*                434               0-1.500000393E+010.0000000000E+00+
*       5.5911005646E+00               0
GRID*                435               0-1.550000734E+010.0000000000E+00+
*       5.5911002340E+00               0
GRID*                436               0-1.600001469E+010.0000000000E+00+
*       5.5910997469E+00               0
GRID*                437               0-1.650003044E+010.0000000000E+00+
*       5.5911012508E+00               0
GRID*                438               0-1.700006385E+010.0000000000E+00+
*       5.5911146037E+00               0
GRID*                439               0-1.750013427E+010.0000000000E+00+
*       5.5911540734E+00               0
GRID*                440               0-1.800028219E+010.0000000000E+00+
*       5.5912140582E+00               0
GRID*                441               0-1.850059169E+010.0000000000E+00+
*       5.5912279743E+00               0
GRID*                442               0-1.900123007E+010.0000000000E+00+
*       5.5910598389E+00               0
GRID*                443               0-1.950249839E+010.0000000000E+00+
*       5.5910118274E+00               0
GRID*                444               0-2.000497805E+010.0000000000E+00+
*       5.5908163184E+00               0
GRID*                445               0-2.051000139E+010.0000000000E+00+
*       5.5908311035E+00               0
GRID*                446               0-2.102069834E+010.0000000000E+00+
*       5.5910070702E+00               0
GRID*                447               0-2.154258303E+010.0000000000E+00+
*       5.5919390821E+00               0
GRID*                448               0-2.208138615E+010.0000000000E+00+
*       5.5970098756E+00               0
GRID*                449               0-2.260246500E+010.0000000000E+00+
*       5.6259018310E+00               0
GRID*                450               0-2.307906746E+010.0000000000E+00+
*       5.6583824207E+00               0
GRID*                451               0-2.353176401E+010.0000000000E+00+
*       5.6705388824E+00               0
GRID*                452               0-2.398952540E+010.0000000000E+00+
*       5.6620681658E+00               0
GRID*                453               0-2.446078993E+010.0000000000E+00+
*       5.6375511890E+00               0
GRID*                454               0-2.494938480E+010.0000000000E+00+
*       5.5936485774E+00               0
GRID*                455               0-2.547262425E+010.0000000000E+00+
*       5.5265169946E+00               0
GRID*                456               0-2.601513611E+010.0000000000E+00+
*       5.5188467684E+00               0
GRID*                457               0-2.653244216E+010.0000000000E+00+
*       5.5341117763E+00               0
GRID*                458               0-2.702403207E+010.0000000000E+00+
*       5.5551669602E+00               0
GRID*                459               0-2.749491587E+010.0000000000E+00+
*       5.5685767554E+00               0
GRID*                460               0-2.795856079E+010.0000000000E+00+
*       5.5586962595E+00               0
GRID*                461               0-2.844896243E+010.0000000000E+00+
*       5.5168804461E+00               0
GRID*                462               0-2.896432243E+010.0000000000E+00+
*       5.5349431113E+00               0
GRID*                463               0-2.945877253E+010.0000000000E+00+
*       5.5538420927E+00               0
GRID*                464               0-2.994554797E+010.0000000000E+00+
*       5.5495053865E+00               0
GRID*                465               0-3.046925423E+010.0000000000E+00+
*       5.5160476443E+00               0
GRID*                466               0-3.102084871E+010.0000000000E+00+
*       5.5518839144E+00               0
GRID*                467               0-3.154073072E+010.0000000000E+00+
*       5.5825153978E+00               0
GRID*                468               0-3.203146274E+010.0000000000E+00+
*       5.5920133095E+00               0
GRID*                469               0-3.248202017E+010.0000000000E+00+
*       5.5652899560E+00               0
GRID*                470               0-3.291571935E+010.0000000000E+00+
*       5.4511349418E+00               0
GRID*                471               0-3.339497941E+010.0000000000E+00+
*       5.3684908528E+00               0
GRID*                472               0-3.387365497E+010.0000000000E+00+
*       5.2880811939E+00               0
GRID*                473               0-3.431584607E+010.0000000000E+00+
*       5.2495306516E+00               0
GRID*                474               0-3.473728902E+010.0000000000E+00+
*       5.1160684202E+00               0
GRID*                475               0-3.516105950E+010.0000000000E+00+
*       4.9172733942E+00               0
GRID*                476               0-3.555931741E+010.0000000000E+00+
*       4.6712158514E+00               0
GRID*                477               0-3.590158991E+010.0000000000E+00+
*       4.3908876366E+00               0
GRID*                478               0-3.617462139E+010.0000000000E+00+
*       4.0385759160E+00               0
GRID*                479               0-3.650085219E+010.0000000000E+00+
*       3.6721826369E+00               0
GRID*                480               0-3.682488869E+010.0000000000E+00+
*       3.2838880403E+00               0
GRID*                481               0-3.713654950E+010.0000000000E+00+
*       2.8842372184E+00               0
GRID*                482               0-3.748278159E+010.0000000000E+00+
*       2.5246209339E+00               0
GRID*                483               0-3.773995645E+010.0000000000E+00+
*       2.2194792429E+00               0
GRID*                484               0-3.788567443E+010.0000000000E+00+
*       1.8637405731E+00               0
GRID*                485               0-3.801218296E+010.0000000000E+00+
*       1.4342258578E+00               0
GRID*                486               0-3.811347417E+010.0000000000E+00+
*       9.6155561465E-01               0
GRID*                487               0-3.817530608E+010.0000000000E+00+
*       4.7076957412E-01               0
GRID*                488               0-3.819487215E+010.0000000000E+00+
*       -2.239203585E-02               0
GRID*                489               0-3.817346879E+010.0000000000E+00+
*       -5.000642923E-01               0
GRID*                490               0-3.811523145E+010.0000000000E+00+
*       -9.325099970E-01               0
GRID*                491               0-3.795762532E+010.0000000000E+00+
*       -1.331171479E+00               0
GRID*                492               0-3.779408012E+010.0000000000E+00+
*       -1.800691357E+00               0
GRID*                493               0-3.759863895E+010.0000000000E+00+
*       -2.210241634E+00               0
GRID*                494               0-3.732303505E+010.0000000000E+00+
*       -2.567144241E+00               0
GRID*                495               0-3.705615947E+010.0000000000E+00+
*       -2.975167930E+00               0
GRID*                496               0-3.679068746E+010.0000000000E+00+
*       -3.381938344E+00               0
GRID*                497               0-3.657789931E+010.0000000000E+00+
*       -3.771652948E+00               0
GRID*                498               0-3.628640166E+010.0000000000E+00+
*       -4.104023818E+00               0
GRID*                499               0-3.593412774E+010.0000000000E+00+
*       -4.412257470E+00               0
GRID*                500               0-3.554892182E+010.0000000000E+00+
*       -4.678148613E+00               0
GRID*                501               0-3.515526322E+010.0000000000E+00+
*       -4.879163385E+00               0
GRID*                502               0-3.472543025E+010.0000000000E+00+
*       -4.989608611E+00               0
GRID*                503               0-3.426650496E+010.0000000000E+00+
*       -5.146789693E+00               0
GRID*                504               0-3.380737403E+010.0000000000E+00+
*       -5.304822205E+00               0
GRID*                505               0-3.339893626E+010.0000000000E+00+
*       -5.482930020E+00               0
GRID*                506               0-3.296182879E+010.0000000000E+00+
*       -5.568991906E+00               0
GRID*                507               0-3.248348468E+010.0000000000E+00+
*       -5.604001095E+00               0
GRID*                508               0-3.198255933E+010.0000000000E+00+
*       -5.603629220E+00               0
GRID*                509               0-3.147115766E+010.0000000000E+00+
*       -5.581512841E+00               0
GRID*                510               0-3.094801187E+010.0000000000E+00+
*       -5.542778611E+00               0
GRID*                511               0-3.039801041E+010.0000000000E+00+
*       -5.494296298E+00               0
GRID*                512               0-2.988081173E+010.0000000000E+00+
*       -5.525270543E+00               0
GRID*                513               0-2.941607200E+010.0000000000E+00+
*       -5.567313618E+00               0
GRID*                514               0-2.896621136E+010.0000000000E+00+
*       -5.568341391E+00               0
GRID*                515               0-2.849895163E+010.0000000000E+00+
*       -5.538821813E+00               0
GRID*                516               0-2.800645751E+010.0000000000E+00+
*       -5.496058626E+00               0
GRID*                517               0-2.749085184E+010.0000000000E+00+
*       -5.461348561E+00               0
GRID*                518               0-2.698320458E+010.0000000000E+00+
*       -5.485236459E+00               0
GRID*                519               0-2.649484797E+010.0000000000E+00+
*       -5.498097083E+00               0
GRID*                520               0-2.600899307E+010.0000000000E+00+
*       -5.492716006E+00               0
GRID*                521               0-2.550961935E+010.0000000000E+00+
*       -5.479723119E+00               0
GRID*                522               0-2.499591233E+010.0000000000E+00+
*       -5.490567477E+00               0
GRID*                523               0-2.448633111E+010.0000000000E+00+
*       -5.512911864E+00               0
GRID*                524               0-2.398921716E+010.0000000000E+00+
*       -5.533224940E+00               0
GRID*                525               0-2.350527771E+010.0000000000E+00+
*       -5.539133881E+00               0
GRID*                526               0-2.302093201E+010.0000000000E+00+
*       -5.518707870E+00               0
GRID*                527               0-2.251664533E+010.0000000000E+00+
*       -5.507887750E+00               0
GRID*                528               0-2.200999311E+010.0000000000E+00+
*       -5.503266286E+00               0
GRID*                529               0-2.150534344E+010.0000000000E+00+
*       -5.501369818E+00               0
GRID*                530               0-2.100268872E+010.0000000000E+00+
*       -5.500583385E+00               0
GRID*                531               0-2.050130256E+010.0000000000E+00+
*       -5.500250496E+00               0
GRID*                532               0-2.000061376E+010.0000000000E+00+
*       -5.500107411E+00               0
GRID*                533               0-1.950028258E+010.0000000000E+00+
*       -5.500045687E+00               0
GRID*                534               0-1.900012738E+010.0000000000E+00+
*       -5.500019222E+00               0
GRID*                535               0-1.850005631E+010.0000000000E+00+
*       -5.500007996E+00               0
GRID*                536               0-1.800002444E+010.0000000000E+00+
*       -5.500003292E+00               0
GRID*                537               0-1.750001043E+010.0000000000E+00+
*       -5.500001344E+00               0
GRID*                538               0-1.700000437E+010.0000000000E+00+
*       -5.500000547E+00               0
GRID*                539               0-1.650000180E+010.0000000000E+00+
*       -5.500000223E+00               0
GRID*                540               0-1.600000072E+010.0000000000E+00+
*       -5.500000092E+00               0
GRID*                541               0-1.550000028E+010.0000000000E+00+
*       -5.500000039E+00               0
GRID*                542               0-1.500000011E+010.0000000000E+00+
*       -5.500000017E+00               0
GRID*                543               0-1.450000004E+010.0000000000E+00+
*       -5.500000008E+00               0
GRID*                544               0-1.400000001E+010.0000000000E+00+
*       -5.500000004E+00               0
GRID*                545               0-1.350000000E+010.0000000000E+00+
*       -5.500000002E+00               0
GRID*                546               0-1.300000000E+010.0000000000E+00+
*       -5.500000001E+00               0
GRID*                547               0-1.250000000E+010.0000000000E+00+
*       -5.500000001E+00               0
GRID*                548               0-1.200000000E+010.0000000000E+00+
*       -5.500000000E+00               0
GRID*                549               0-1.150000000E+010.0000000000E+00+
*       -5.500000000E+00               0
GRID*                550               0-1.100000000E+010.0000000000E+00+
*       -5.500000000E+00               0
GRID*                551               0-1.050000000E+010.0000000000E+00+
*       -5.500000000E+00               0
GRID*                552               0-1.000000000E+010.0000000000E+00+
*       -5.500000000E+00               0
GRID*                553               0-9.500000000E+000.0000000000E+00+
*       -5.500000000E+00               0
GRID*                554               0-9.000000000E+000.0000000000E+00+
*       -5.500000000E+00               0
GRID*                555               0-8.500000000E+000.0000000000E+00+
*       -5.500000000E+00               0
GRID*                556               0-8.000000000E+000.0000000000E+00+
*       -5.500000000E+00               0
GRID*                557               0-7.500000000E+000.0000000000E+00+
*       -5.500000000E+00               0
GRID*                558               0-7.000000000E+000.0000000000E+00+
*       -5.500000000E+00               0
GRID*                559               0-6.500000000E+000.0000000000E+00+
*       -5.500000000E+00               0
GRID*                560               0-6.000000000E+000.0000000000E+00+
*       -5.500000000E+00               0
GRID*                561               0-5.500000000E+000.0000000000E+00+
*       -5.500000000E+00               0
GRID*                562               0-5.000000000E+000.0000000000E+00+
*       -5.500000000E+00               0
GRID*                563               0-4.500000000E+000.0000000000E+00+
*       -5.500000000E+00               0
GRID*                564               0-4.000000000E+000.0000000000E+00+
*       -5.500000000E+00               0
GRID*                565               0-3.500000000E+000.0000000000E+00+
*       -5.500000000E+00               0
GRID*                566               0-3.000000000E+000.0000000000E+00+
*       -5.500000000E+00               0
GRID*                567               0-2.500000000E+000.0000000000E+00+
*       -5.500000000E+00               0
GRID*                568               0-2.000000000E+000.0000000000E+00+
*       -5.500000000E+00               0
GRID*                569               0-1.500000000E+000.0000000000E+00+
*       -5.500000000E+00               0
GRID*                570               0-1.000000000E+000.0000000000E+00+
*       -5.500000000E+00               0
GRID*                571               0-5.000000000E-010.0000000000E+00+
*       -5.500000000E+00               0
GRID*                572               01.1435297154E-140.0000000000E+00+
*       -5.500000000E+00               0
GRID*                573               05.0000000000E-010.0000000000E+00+
*       -5.500000000E+00               0
GRID*                574               01.0000000000E+000.0000000000E+00+
*       -5.500000000E+00               0
GRID*                575               01.5000000000E+000.0000000000E+00+
*       -5.500000000E+00               0
GRID*                576               02.0000000000E+000.0000000000E+00+
*       -5.500000000E+00               0
GRID*                577               02.5000000000E+000.0000000000E+00+
*       -5.500000000E+00               0
GRID*                578               03.0000000000E+000.0000000000E+00+
*       -5.500000000E+00               0
GRID*                579               03.5000000000E+000.0000000000E+00+
*       -5.500000000E+00               0
GRID*                580               04.0000000000E+000.0000000000E+00+
*       -5.500000000E+00               0
GRID*                581               04.5000000000E+000.0000000000E+00+
*       -5.500000000E+00               0
GRID*                582               05.0000000000E+000.0000000000E+00+
*       -5.500000000E+00               0
GRID*                583               05.5000000000E+000.0000000000E+00+
*       -5.500000000E+00               0
GRID*                584               06.0000000000E+000.0000000000E+00+
*       -5.500000000E+00               0
GRID*                585               06.5000000000E+000.0000000000E+00+
*       -5.500000000E+00               0
GRID*                586               07.0000000000E+000.0000000000E+00+
*       -5.500000000E+00               0
GRID*                587               07.5000000000E+000.0000000000E+00+
*       -5.500000000E+00               0
GRID*                588               08.0000000001E+000.0000000000E+00+
*       -5.500000000E+00               0
GRID*                589               08.5000000001E+000.0000000000E+00+
*       -5.500000000E+00               0
GRID*                590               09.0000000002E+000.0000000000E+00+
*       -5.500000000E+00               0
GRID*                591               09.5000000003E+000.0000000000E+00+
*       -5.500000000E+00               0
GRID*                592               01.0000000001E+010.0000000000E+00+
*       -5.500000000E+00               0
GRID*                593               01.0500000001E+010.0000000000E+00+
*       -5.500000000E+00               0
GRID*                594               01.1000000002E+010.0000000000E+00+
*       -5.500000000E+00               0
GRID*                595               01.1500000003E+010.0000000000E+00+
*       -5.500000000E+00               0
GRID*                596               01.2000000005E+010.0000000000E+00+
*       -5.499999999E+00               0
GRID*                597               01.2500000008E+010.0000000000E+00+
*       -5.499999999E+00               0
GRID*                598               01.3000000013E+010.0000000000E+00+
*       -5.499999998E+00               0
GRID*                599               01.3500000022E+010.0000000000E+00+
*       -5.499999998E+00               0
GRID*                600               01.4000000038E+010.0000000000E+00+
*       -5.499999999E+00               0
GRID*                601               01.4500000071E+010.0000000000E+00+
*       -5.500000002E+00               0
GRID*                602               01.5000000143E+010.0000000000E+00+
*       -5.500000017E+00               0
GRID*                603               01.5500000319E+010.0000000000E+00+
*       -5.500000060E+00               0
GRID*                604               01.6000000760E+010.0000000000E+00+
*       -5.500000184E+00               0
GRID*                605               01.6500001896E+010.0000000000E+00+
*       -5.500000519E+00               0
GRID*                606               01.7000004830E+010.0000000000E+00+
*       -5.500001404E+00               0
GRID*                607               01.7500012395E+010.0000000000E+00+
*       -5.500003713E+00               0
GRID*                608               01.8000031750E+010.0000000000E+00+
*       -5.500009671E+00               0
GRID*                609               01.8500080655E+010.0000000000E+00+
*       -5.500024889E+00               0
GRID*                610               01.9000201758E+010.0000000000E+00+
*       -5.500063278E+00               0
GRID*                611               01.9500492680E+010.0000000000E+00+
*       -5.500158591E+00               0
GRID*                612               02.0001163085E+010.0000000000E+00+
*       -5.500391129E+00               0
GRID*                613               02.0502609649E+010.0000000000E+00+
*       -5.500978013E+00               0
GRID*                614               02.1005429079E+010.0000000000E+00+
*       -5.502450326E+00               0
GRID*                615               02.1510205317E+010.0000000000E+00+
*       -5.505939510E+00               0
GRID*                616               02.2016417354E+010.0000000000E+00+
*       -5.513687604E+00               0
GRID*                617               02.2518459833E+010.0000000000E+00+
*       -5.529454397E+00               0
GRID*                618               02.2999226958E+010.0000000000E+00+
*       -5.554595684E+00               0
GRID*                619               02.3479816291E+010.0000000000E+00+
*       -5.551978648E+00               0
GRID*                620               02.3975233106E+010.0000000000E+00+
*       -5.532826639E+00               0
GRID*                621               02.4485408987E+010.0000000000E+00+
*       -5.506247611E+00               0
GRID*                622               02.5005333426E+010.0000000000E+00+
*       -5.483207656E+00               0
GRID*                623               02.5517875822E+010.0000000000E+00+
*       -5.483088740E+00               0
GRID*                624               02.6016291825E+010.0000000000E+00+
*       -5.488912665E+00               0
GRID*                625               02.6506804223E+010.0000000000E+00+
*       -5.489279368E+00               0
GRID*                626               02.6997955014E+010.0000000000E+00+
*       -5.481411292E+00               0
GRID*                627               02.7496990164E+010.0000000000E+00+
*       -5.468735826E+00               0
GRID*                628               02.8006691472E+010.0000000000E+00+
*       -5.463033490E+00               0
GRID*                629               02.8516917931E+010.0000000000E+00+
*       -5.483028270E+00               0
GRID*                630               02.9014969553E+010.0000000000E+00+
*       -5.506927248E+00               0
GRID*                631               02.9508664349E+010.0000000000E+00+
*       -5.511392419E+00               0
GRID*                632               03.0035642775E+010.0000000000E+00+
*       -5.478761270E+00               0
GRID*                633               03.0579707331E+010.0000000000E+00+
*       -5.509471699E+00               0
GRID*                634               03.1087757998E+010.0000000000E+00+
*       -5.541391598E+00               0
GRID*                635               03.1553051859E+010.0000000000E+00+
*       -5.547098547E+00               0
GRID*                636               03.2008373576E+010.0000000000E+00+
*       -5.471550598E+00               0
GRID*                637               03.2498354005E+010.0000000000E+00+
*       -5.450315897E+00               0
GRID*                638               03.2987503047E+010.0000000000E+00+
*       -5.443503339E+00               0
GRID*                639               03.3437411183E+010.0000000000E+00+
*       -5.476565174E+00               0
GRID*                640               03.3887256004E+010.0000000000E+00+
*       -5.415737397E+00               0
GRID*                641               03.4369917643E+010.0000000000E+00+
*       -5.295557464E+00               0
GRID*                642               03.4790482716E+010.0000000000E+00+
*       -5.209671339E+00               0
GRID*                643               03.5184738657E+010.0000000000E+00+
*       -5.022802491E+00               0
GRID*                644               03.5596394324E+010.0000000000E+00+
*       -4.780262633E+00               0
GRID*                645               03.5997931985E+010.0000000000E+00+
*       -4.494082116E+00               0
GRID*                646               03.6373618359E+010.0000000000E+00+
*       -4.174537052E+00               0
GRID*                647               03.6710322675E+010.0000000000E+00+
*       -3.835077385E+00               0
GRID*                648               03.6989125207E+010.0000000000E+00+
*       -3.499477121E+00               0
GRID*                649               03.7175910263E+010.0000000000E+00+
*       -3.113804527E+00               0
GRID*                650               03.7410526125E+010.0000000000E+00+
*       -2.675467061E+00               0
GRID*                651               03.7579442110E+010.0000000000E+00+
*       -2.254278919E+00               0
GRID*                652               03.7655299535E+010.0000000000E+00+
*       -1.809758079E+00               0
GRID*                653               03.7774718417E+010.0000000000E+00+
*       -1.337055032E+00               0
GRID*                654               03.7894182191E+010.0000000000E+00+
*       -8.662405237E-01               0
GRID*                655               03.8036785666E+010.0000000000E+00+
*       -4.457441499E-01               0
GRID*                656               03.8083894971E+010.0000000000E+00+
*       -6.180638426E-03               0
GRID*                657               03.8072078422E+010.0000000000E+00+
*       4.6174697575E-01               0
GRID*                658               03.8006722090E+010.0000000000E+00+
*       9.2528707412E-01               0
GRID*                659               03.7887493408E+010.0000000000E+00+
*       1.3513313320E+00               0
GRID*                660               03.7674512138E+010.0000000000E+00+
*       1.7428636912E+00               0
GRID*                661               03.7470016484E+010.0000000000E+00+
*       2.1887921402E+00               0
GRID*                662               03.7244588162E+010.0000000000E+00+
*       2.6415309604E+00               0
GRID*                663               03.7003780881E+010.0000000000E+00+
*       3.0875258219E+00               0
GRID*                664               03.6813496031E+010.0000000000E+00+
*       3.5491478488E+00               0
GRID*                665               03.6637290163E+010.0000000000E+00+
*       3.9071490412E+00               0
GRID*                666               03.6369908173E+010.0000000000E+00+
*       4.1832676296E+00               0
GRID*                667               03.6026938652E+010.0000000000E+00+
*       4.4710169016E+00               0
GRID*                668               03.5634328139E+010.0000000000E+00+
*       4.7536675427E+00               0
GRID*                669               03.5208471934E+010.0000000000E+00+
*       5.0089339977E+00               0
GRID*                670               03.4758849066E+010.0000000000E+00+
*       5.2282896491E+00               0
GRID*                671               03.4292627061E+010.0000000000E+00+
*       5.4086299683E+00               0
GRID*                672               03.3824797318E+010.0000000000E+00+
*       5.5550777401E+00               0
GRID*                673               03.3442701256E+010.0000000000E+00+
*       5.6742600200E+00               0
GRID*                674               03.3044427293E+010.0000000000E+00+
*       5.6873302774E+00               0
GRID*                675               03.2500000032E+010.0000000000E+00+
*       -4.882744575E+00               0
GRID*                676               03.1962857454E+010.0000000000E+00+
*       -4.853109104E+00               0
GRID*                677               03.1432236405E+010.0000000000E+00+
*       -4.764563916E+00               0
GRID*                678               03.0914576110E+010.0000000000E+00+
*       -4.618183968E+00               0
GRID*                679               03.0416159423E+010.0000000000E+00+
*       -4.415744986E+00               0
GRID*                680               02.9943038537E+010.0000000000E+00+
*       -4.159704012E+00               0
GRID*                681               02.9500957296E+010.0000000000E+00+
*       -3.853171334E+00               0
GRID*                682               02.9095277652E+010.0000000000E+00+
*       -3.499866179E+00               0
GRID*                683               02.8730928162E+010.0000000000E+00+
*       -3.104075469E+00               0
GRID*                684               02.8412330417E+010.0000000000E+00+
*       -2.670607559E+00               0
GRID*                685               02.8143351348E+010.0000000000E+00+
*       -2.204721748E+00               0
GRID*                686               02.7927255400E+010.0000000000E+00+
*       -1.712073635E+00               0
GRID*                687               02.7766666843E+010.0000000000E+00+
*       -1.198643363E+00               0
GRID*                688               02.7663533382E+010.0000000000E+00+
*       -6.706624197E-01               0
GRID*                689               02.7619109854E+010.0000000000E+00+
*       -1.345409853E-01               0
GRID*                690               02.7633931894E+010.0000000000E+00+
*       4.0321320897E-01               0
GRID*                691               02.7707822956E+010.0000000000E+00+
*       9.3607566641E-01               0
GRID*                692               02.7839885734E+010.0000000000E+00+
*       1.4575724052E+00               0
GRID*                693               02.8028513213E+010.0000000000E+00+
*       1.9613746496E+00               0
GRID*                694               02.8271418998E+010.0000000000E+00+
*       2.4413723334E+00               0
GRID*                695               02.8565656019E+010.0000000000E+00+
*       2.8917335263E+00               0
GRID*                696               02.8907648332E+010.0000000000E+00+
*       3.3069922659E+00               0
GRID*                697               02.9293247520E+010.0000000000E+00+
*       3.6821092752E+00               0
GRID*                698               02.9717772937E+010.0000000000E+00+
*       4.0125313306E+00               0
GRID*                699               03.0176071287E+010.0000000000E+00+
*       4.2942455228E+00               0
GRID*                700               03.0662577463E+010.0000000000E+00+
*       4.5238332869E+00               0
GRID*                701               03.1171388028E+010.0000000000E+00+
*       4.6985086201E+00               0
GRID*                702               03.1696327199E+010.0000000000E+00+
*       4.8161503178E+00               0
GRID*                703               03.2231021170E+010.0000000000E+00+
*       4.8753296060E+00               0
GRID*                704               03.2768979179E+010.0000000000E+00+
*       4.8753296048E+00               0
GRID*                705               03.3303673067E+010.0000000000E+00+
*       4.8161501255E+00               0
GRID*                706               03.3828612128E+010.0000000000E+00+
*       4.6985085258E+00               0
GRID*                707               03.4337422714E+010.0000000000E+00+
*       4.5238331384E+00               0
GRID*                708               03.4823929142E+010.0000000000E+00+
*       4.2942452846E+00               0
GRID*                709               03.5282227568E+010.0000000000E+00+
*       4.0125306257E+00               0
GRID*                710               03.5706752049E+010.0000000000E+00+
*       3.6821088373E+00               0
GRID*                711               03.6092351418E+010.0000000000E+00+
*       3.3069926646E+00               0
GRID*                712               03.6434345273E+010.0000000000E+00+
*       2.8917324374E+00               0
GRID*                713               03.6728579369E+010.0000000000E+00+
*       2.4413722212E+00               0
GRID*                714               03.6971487527E+010.0000000000E+00+
*       1.9613769123E+00               0
GRID*                715               03.7160115487E+010.0000000000E+00+
*       1.4575713686E+00               0
GRID*                716               03.7292177580E+010.0000000000E+00+
*       9.3607476651E-01               0
GRID*                717               03.7366068113E+010.0000000000E+00+
*       4.0321273564E-01               0
GRID*                718               03.7380890153E+010.0000000000E+00+
*       -1.345412234E-01               0
GRID*                719               03.7336466609E+010.0000000000E+00+
*       -6.706606422E-01               0
GRID*                720               03.7233335134E+010.0000000000E+00+
*       -1.198644118E+00               0
GRID*                721               03.7072743760E+010.0000000000E+00+
*       -1.712074357E+00               0
GRID*                722               03.6856649498E+010.0000000000E+00+
*       -2.204722241E+00               0
GRID*                723               03.6587669028E+010.0000000000E+00+
*       -2.670607019E+00               0
GRID*                724               03.6269072652E+010.0000000000E+00+
*       -3.104076132E+00               0
GRID*                725               03.5904720934E+010.0000000000E+00+
*       -3.499866379E+00               0
GRID*                726               03.5499043033E+010.0000000000E+00+
*       -3.853170531E+00               0
GRID*                727               03.5056961701E+010.0000000000E+00+
*       -4.159703810E+00               0
GRID*                728               03.4583840593E+010.0000000000E+00+
*       -4.415744787E+00               0
GRID*                729               03.4085423956E+010.0000000000E+00+
*       -4.618183960E+00               0
GRID*                730               03.3567763550E+010.0000000000E+00+
*       -4.764563800E+00               0
GRID*                731               03.3037142655E+010.0000000000E+00+
*       -4.853109064E+00               0
GRID*                732               0-3.250000003E+010.0000000000E+00+
*       -4.882744575E+00               0
GRID*                733               0-3.303714266E+010.0000000000E+00+
*       -4.853109064E+00               0
GRID*                734               0-3.356776355E+010.0000000000E+00+
*       -4.764563800E+00               0
GRID*                735               0-3.408542396E+010.0000000000E+00+
*       -4.618183960E+00               0
GRID*                736               0-3.458384059E+010.0000000000E+00+
*       -4.415744787E+00               0
GRID*                737               0-3.505696170E+010.0000000000E+00+
*       -4.159703810E+00               0
GRID*                738               0-3.549904303E+010.0000000000E+00+
*       -3.853170531E+00               0
GRID*                739               0-3.590472093E+010.0000000000E+00+
*       -3.499866379E+00               0
GRID*                740               0-3.626907265E+010.0000000000E+00+
*       -3.104076132E+00               0
GRID*                741               0-3.658766903E+010.0000000000E+00+
*       -2.670607019E+00               0
GRID*                742               0-3.685664950E+010.0000000000E+00+
*       -2.204722241E+00               0
GRID*                743               0-3.707274376E+010.0000000000E+00+
*       -1.712074357E+00               0
GRID*                744               0-3.723333513E+010.0000000000E+00+
*       -1.198644118E+00               0
GRID*                745               0-3.733646661E+010.0000000000E+00+
*       -6.706606422E-01               0
GRID*                746               0-3.738089015E+010.0000000000E+00+
*       -1.345412234E-01               0
GRID*                747               0-3.736606811E+010.0000000000E+00+
*       4.0321273564E-01               0
GRID*                748               0-3.729217758E+010.0000000000E+00+
*       9.3607476651E-01               0
GRID*                749               0-3.716011549E+010.0000000000E+00+
*       1.4575713686E+00               0
GRID*                750               0-3.697148753E+010.0000000000E+00+
*       1.9613769123E+00               0
GRID*                751               0-3.672857937E+010.0000000000E+00+
*       2.4413722212E+00               0
GRID*                752               0-3.643434527E+010.0000000000E+00+
*       2.8917324374E+00               0
GRID*                753               0-3.609235142E+010.0000000000E+00+
*       3.3069926646E+00               0
GRID*                754               0-3.570675205E+010.0000000000E+00+
*       3.6821088373E+00               0
GRID*                755               0-3.528222757E+010.0000000000E+00+
*       4.0125306257E+00               0
GRID*                756               0-3.482392914E+010.0000000000E+00+
*       4.2942452846E+00               0
GRID*                757               0-3.433742271E+010.0000000000E+00+
*       4.5238331384E+00               0
GRID*                758               0-3.382861213E+010.0000000000E+00+
*       4.6985085258E+00               0
GRID*                759               0-3.330367307E+010.0000000000E+00+
*       4.8161501255E+00               0
GRID*                760               0-3.276897918E+010.0000000000E+00+
*       4.8753296048E+00               0
GRID*                761               0-3.223102117E+010.0000000000E+00+
*       4.8753296060E+00               0
GRID*                762               0-3.169632720E+010.0000000000E+00+
*       4.8161503178E+00               0
GRID*                763               0-3.117138803E+010.0000000000E+00+
*       4.6985086201E+00               0
GRID*                764               0-3.066257746E+010.0000000000E+00+
*       4.5238332869E+00               0
GRID*                765               0-3.017607129E+010.0000000000E+00+
*       4.2942455228E+00               0
GRID*                766               0-2.971777294E+010.0000000000E+00+
*       4.0125313306E+00               0
GRID*                767               0-2.929324752E+010.0000000000E+00+
*       3.6821092752E+00               0
GRID*                768               0-2.890764833E+010.0000000000E+00+
*       3.3069922659E+00               0
GRID*                769               0-2.856565602E+010.0000000000E+00+
*       2.8917335263E+00               0
GRID*                770               0-2.827141900E+010.0000000000E+00+
*       2.4413723334E+00               0
GRID*                771               0-2.802851321E+010.0000000000E+00+
*       1.9613746496E+00               0
GRID*                772               0-2.783988573E+010.0000000000E+00+
*       1.4575724052E+00               0
GRID*                773               0-2.770782296E+010.0000000000E+00+
*       9.3607566641E-01               0
GRID*                774               0-2.763393189E+010.0000000000E+00+
*       4.0321320897E-01               0
GRID*                775               0-2.761910985E+010.0000000000E+00+
*       -1.345409853E-01               0
GRID*                776               0-2.766353338E+010.0000000000E+00+
*       -6.706624197E-01               0
GRID*                777               0-2.776666684E+010.0000000000E+00+
*       -1.198643363E+00               0
GRID*                778               0-2.792725540E+010.0000000000E+00+
*       -1.712073635E+00               0
GRID*                779               0-2.814335135E+010.0000000000E+00+
*       -2.204721748E+00               0
GRID*                780               0-2.841233042E+010.0000000000E+00+
*       -2.670607559E+00               0
GRID*                781               0-2.873092816E+010.0000000000E+00+
*       -3.104075469E+00               0
GRID*                782               0-2.909527765E+010.0000000000E+00+
*       -3.499866179E+00               0
GRID*                783               0-2.950095730E+010.0000000000E+00+
*       -3.853171334E+00               0
GRID*                784               0-2.994303854E+010.0000000000E+00+
*       -4.159704012E+00               0
GRID*                785               0-3.041615942E+010.0000000000E+00+
*       -4.415744986E+00               0
GRID*                786               0-3.091457611E+010.0000000000E+00+
*       -4.618183968E+00               0
GRID*                787               0-3.143223641E+010.0000000000E+00+
*       -4.764563916E+00               0
GRID*                788               0-3.196285745E+010.0000000000E+00+
*       -4.853109104E+00               0
GRID*                789               0-2.705114719E+010.0000000000E+00+
*       -7.223995520E-02               0
GRID*                790               02.7729056116E+010.0000000000E+00+
*       -2.374097005E+00               0
GRID*                791               02.7310998315E+010.0000000000E+00+
*       -2.446126691E+00               0
GRID*                792               02.6907797996E+010.0000000000E+00+
*       -2.386517597E+00               0
GRID*                793               02.6454228371E+010.0000000000E+00+
*       -2.300939901E+00               0
GRID*                794               03.4803038802E+010.0000000000E+00+
*       -4.606824787E+00               0
GRID*                795               03.5014692693E+010.0000000000E+00+
*       -4.794194177E+00               0
GRID*                796               03.7701988052E+010.0000000000E+00+
*       4.3107271910E-01               0
GRID*                797               03.7528793796E+010.0000000000E+00+
*       1.2416698723E+00               0
GRID*                798               03.7635518969E+010.0000000000E+00+
*       8.8591286255E-01               0
GRID*                799               03.7664283928E+010.0000000000E+00+
*       -3.969651041E-01               0
GRID*                800               03.7711233166E+010.0000000000E+00+
*       -2.847805629E-02               0
GRID*                801               03.6530316381E+010.0000000000E+00+
*       -3.613869932E+00               0
GRID*                802               03.6401911916E+010.0000000000E+00+
*       -3.364174632E+00               0
GRID*                803               03.6045570073E+010.0000000000E+00+
*       -3.720434739E+00               0
GRID*                804               03.6200540806E+010.0000000000E+00+
*       -3.945985797E+00               0
GRID*                805               03.5655890831E+010.0000000000E+00+
*       -4.054509658E+00               0
GRID*                806               03.5822467519E+010.0000000000E+00+
*       -4.268509499E+00               0
GRID*                807               03.5236811105E+010.0000000000E+00+
*       -4.350693237E+00               0
GRID*                808               03.5417617857E+010.0000000000E+00+
*       -4.556552744E+00               0
GRID*                809               03.7226387486E+010.0000000000E+00+
*       -2.123576010E+00               0
GRID*                810               03.6804255990E+010.0000000000E+00+
*       -2.986357285E+00               0
GRID*                811               03.6778516162E+010.0000000000E+00+
*       -3.342862312E+00               0
GRID*                812               03.7088099013E+010.0000000000E+00+
*       -2.484866057E+00               0
GRID*                813               0-3.089671185E+010.0000000000E+00+
*       -5.071422341E+00               0
GRID*                814               0-3.570604390E+010.0000000000E+00+
*       -4.119188109E+00               0
GRID*                815               0-3.628972546E+010.0000000000E+00+
*       -3.530630937E+00               0
GRID*                816               0-3.605041580E+010.0000000000E+00+
*       -3.814743477E+00               0
GRID*                817               0-3.499228910E+010.0000000000E+00+
*       -4.540612746E+00               0
GRID*                818               0-3.532642832E+010.0000000000E+00+
*       -4.378313659E+00               0
GRID*                819               0-3.248068704E+010.0000000000E+00+
*       -5.230378138E+00               0
GRID*                820               0-3.197001624E+010.0000000000E+00+
*       -5.219095093E+00               0
GRID*                821               0-3.144534462E+010.0000000000E+00+
*       -5.166789818E+00               0
GRID*                822               0-3.331922988E+010.0000000000E+00+
*       -5.115766216E+00               0
GRID*                823               0-3.295323023E+010.0000000000E+00+
*       -5.195024101E+00               0
GRID*                824               03.1204443217E+010.0000000000E+00+
*       -5.115150786E+00               0
GRID*                825               03.3397667191E+010.0000000000E+00+
*       -5.102167732E+00               0
GRID*                826               03.4337819629E+010.0000000000E+00+
*       -4.904358759E+00               0
GRID*                827               03.4690476117E+010.0000000000E+00+
*       -4.967523595E+00               0
GRID*                828               03.3781848332E+010.0000000000E+00+
*       -5.057010277E+00               0
GRID*                829               03.1594782460E+010.0000000000E+00+
*       -5.142658626E+00               0
GRID*                830               0-2.498681690E+010.0000000000E+00+
*       -4.969051217E+00               0
GRID*                831               0-2.496134431E+010.0000000000E+00+
*       -4.417582204E+00               0
GRID*                832               0-2.485175273E+010.0000000000E+00+
*       -3.864395605E+00               0
GRID*                833               0-2.550466439E+010.0000000000E+00+
*       -3.535653556E+00               0
GRID*                834               0-2.586046588E+010.0000000000E+00+
*       -2.931075216E+00               0
GRID*                835               0-2.616597343E+010.0000000000E+00+
*       -2.464388962E+00               0
GRID*                836               0-2.643203717E+010.0000000000E+00+
*       -2.002754810E+00               0
GRID*                837               0-2.671452885E+010.0000000000E+00+
*       -1.512549196E+00               0
GRID*                838               0-2.704721892E+010.0000000000E+00+
*       -8.673910318E-01               0
GRID*                839               0-2.734526852E+010.0000000000E+00+
*       -1.534450029E+00               0
GRID*                840               0-2.758213421E+010.0000000000E+00+
*       -2.040348607E+00               0
GRID*                841               0-2.780428036E+010.0000000000E+00+
*       -2.532377391E+00               0
GRID*                842               0-2.809450223E+010.0000000000E+00+
*       -3.064080957E+00               0
GRID*                843               0-2.849085755E+010.0000000000E+00+
*       -3.512418356E+00               0
GRID*                844               0-2.890910436E+010.0000000000E+00+
*       -3.869799046E+00               0
GRID*                845               0-2.931958162E+010.0000000000E+00+
*       -4.171603692E+00               0
GRID*                846               0-2.972426892E+010.0000000000E+00+
*       -4.464347227E+00               0
GRID*                847               0-3.023086266E+010.0000000000E+00+
*       -4.900492221E+00               0
GRID*                848               0-2.971616391E+010.0000000000E+00+
*       -5.072561373E+00               0
GRID*                849               0-2.933152107E+010.0000000000E+00+
*       -5.179024917E+00               0
GRID*                850               0-2.895148339E+010.0000000000E+00+
*       -5.162712690E+00               0
GRID*                851               0-2.852139425E+010.0000000000E+00+
*       -5.089177096E+00               0
GRID*                852               0-2.803580631E+010.0000000000E+00+
*       -4.982652744E+00               0
GRID*                853               0-2.747176449E+010.0000000000E+00+
*       -4.851952957E+00               0
GRID*                854               0-2.694825690E+010.0000000000E+00+
*       -4.984876610E+00               0
GRID*                855               0-2.648878710E+010.0000000000E+00+
*       -5.015635110E+00               0
GRID*                856               0-2.603244465E+010.0000000000E+00+
*       -4.994324781E+00               0
GRID*                857               0-2.553537703E+010.0000000000E+00+
*       -4.933775223E+00               0
GRID*                858               0-2.563810686E+010.0000000000E+00+
*       -4.262176416E+00               0
GRID*                859               0-2.608439732E+010.0000000000E+00+
*       -3.968240052E+00               0
GRID*                860               0-2.641043792E+010.0000000000E+00+
*       -3.901218654E+00               0
GRID*                861               0-2.673742122E+010.0000000000E+00+
*       -3.782906378E+00               0
GRID*                862               0-2.715569568E+010.0000000000E+00+
*       -3.638728222E+00               0
GRID*                863               0-2.772049971E+010.0000000000E+00+
*       -3.566364703E+00               0
GRID*                864               0-2.873302828E+010.0000000000E+00+
*       -4.257392633E+00               0
GRID*                865               0-2.898670982E+010.0000000000E+00+
*       -4.804982882E+00               0
GRID*                866               0-2.913323905E+010.0000000000E+00+
*       -4.490222041E+00               0
GRID*                867               0-2.946559332E+010.0000000000E+00+
*       -4.715555366E+00               0
GRID*                868               0-2.721695712E+010.0000000000E+00+
*       -4.154763589E+00               0
GRID*                869               0-2.719452167E+010.0000000000E+00+
*       -4.541716085E+00               0
GRID*                870               0-2.649639967E+010.0000000000E+00+
*       -4.224620322E+00               0
GRID*                871               0-2.648264185E+010.0000000000E+00+
*       -4.585677497E+00               0
GRID*                872               0-2.624205291E+010.0000000000E+00+
*       -4.240890677E+00               0
GRID*                873               0-2.609804159E+010.0000000000E+00+
*       -4.536778887E+00               0
GRID*                874               0-2.682986944E+010.0000000000E+00+
*       -4.182775143E+00               0
GRID*                875               0-2.685784658E+010.0000000000E+00+
*       -4.573464079E+00               0
GRID*                876               0-2.827481446E+010.0000000000E+00+
*       -3.973958549E+00               0
GRID*                877               0-2.765385800E+010.0000000000E+00+
*       -4.276550158E+00               0
GRID*                878               0-2.813961684E+010.0000000000E+00+
*       -4.482270526E+00               0
GRID*                879               0-2.859611631E+010.0000000000E+00+
*       -4.664073674E+00               0
GRID*                880               0-2.604077778E+010.0000000000E+00+
*       -3.565969862E+00               0
GRID*                881               0-2.623465188E+010.0000000000E+00+
*       -3.173421413E+00               0
GRID*                882               0-2.650217517E+010.0000000000E+00+
*       -2.758750057E+00               0
GRID*                883               0-2.671018982E+010.0000000000E+00+
*       -2.335569721E+00               0
GRID*                884               0-2.700589742E+010.0000000000E+00+
*       -1.960800394E+00               0
GRID*                885               0-2.725223826E+010.0000000000E+00+
*       -2.369871613E+00               0
GRID*                886               0-2.741370153E+010.0000000000E+00+
*       -2.862717405E+00               0
GRID*                887               0-2.690968629E+010.0000000000E+00+
*       -3.059529131E+00               0
GRID*                888               0-2.655338602E+010.0000000000E+00+
*       -3.416679174E+00               0
GRID*                889               0-2.695185371E+010.0000000000E+00+
*       -2.608623778E+00               0
GRID*                890               02.3751741718E+010.0000000000E+00+
*       -4.221973322E+00               0
GRID*                891               02.3866466336E+010.0000000000E+00+
*       -4.632631765E+00               0
GRID*                892               02.3935930462E+010.0000000000E+00+
*       -5.074065599E+00               0
GRID*                893               02.9273509302E+010.0000000000E+00+
*       -4.221629014E+00               0
GRID*                894               02.9079004745E+010.0000000000E+00+
*       -4.600867821E+00               0
GRID*                895               02.9032121866E+010.0000000000E+00+
*       -5.032627808E+00               0
GRID*                896               03.0058866007E+010.0000000000E+00+
*       -4.888353089E+00               0
GRID*                897               03.0701748194E+010.0000000000E+00+
*       -5.033322020E+00               0
GRID*                898               02.9396116160E+010.0000000000E+00+
*       -4.709212876E+00               0
GRID*                899               02.9487689909E+010.0000000000E+00+
*       -5.053522561E+00               0
GRID*                900               02.9663540747E+010.0000000000E+00+
*       -4.476996385E+00               0
GRID*                901               02.8833177452E+010.0000000000E+00+
*       -3.937699257E+00               0
GRID*                902               02.8358768362E+010.0000000000E+00+
*       -3.562702419E+00               0
GRID*                903               02.7890971649E+010.0000000000E+00+
*       -3.017865187E+00               0
GRID*                904               02.7327755931E+010.0000000000E+00+
*       -2.919908200E+00               0
GRID*                905               02.6891245892E+010.0000000000E+00+
*       -2.868255090E+00               0
GRID*                906               02.6464556664E+010.0000000000E+00+
*       -2.856175015E+00               0
GRID*                907               02.6033395198E+010.0000000000E+00+
*       -2.922274930E+00               0
GRID*                908               02.5651439775E+010.0000000000E+00+
*       -3.134124192E+00               0
GRID*                909               02.5278201837E+010.0000000000E+00+
*       -3.422540432E+00               0
GRID*                910               02.4836660102E+010.0000000000E+00+
*       -3.786054431E+00               0
GRID*                911               02.4292409002E+010.0000000000E+00+
*       -4.048667621E+00               0
GRID*                912               02.4413166031E+010.0000000000E+00+
*       -4.507101994E+00               0
GRID*                913               02.4461363398E+010.0000000000E+00+
*       -5.008853025E+00               0
GRID*                914               02.5020489924E+010.0000000000E+00+
*       -4.940673187E+00               0
GRID*                915               02.5552099452E+010.0000000000E+00+
*       -4.959833998E+00               0
GRID*                916               02.6041692506E+010.0000000000E+00+
*       -4.983172965E+00               0
GRID*                917               02.6514135237E+010.0000000000E+00+
*       -4.986698092E+00               0
GRID*                918               02.6988931877E+010.0000000000E+00+
*       -4.967785177E+00               0
GRID*                919               02.7483025067E+010.0000000000E+00+
*       -4.929892324E+00               0
GRID*                920               02.8012432476E+010.0000000000E+00+
*       -4.896361911E+00               0
GRID*                921               02.8545367338E+010.0000000000E+00+
*       -4.962203863E+00               0
GRID*                922               02.8620903168E+010.0000000000E+00+
*       -4.430084878E+00               0
GRID*                923               02.8009724532E+010.0000000000E+00+
*       -4.186337601E+00               0
GRID*                924               02.7622004366E+010.0000000000E+00+
*       -3.619294148E+00               0
GRID*                925               02.7237764802E+010.0000000000E+00+
*       -3.368396890E+00               0
GRID*                926               02.6863571743E+010.0000000000E+00+
*       -3.307435381E+00               0
GRID*                927               02.6488083757E+010.0000000000E+00+
*       -3.311201842E+00               0
GRID*                928               02.6121931527E+010.0000000000E+00+
*       -3.371623720E+00               0
GRID*                929               02.5789183385E+010.0000000000E+00+
*       -3.502919803E+00               0
GRID*                930               02.5494692464E+010.0000000000E+00+
*       -3.776806562E+00               0
GRID*                931               02.5080310691E+010.0000000000E+00+
*       -4.290236175E+00               0
GRID*                932               02.5632258656E+010.0000000000E+00+
*       -4.438479073E+00               0
GRID*                933               02.6085432732E+010.0000000000E+00+
*       -4.499449882E+00               0
GRID*                934               02.6519901615E+010.0000000000E+00+
*       -4.508027177E+00               0
GRID*                935               02.6960507288E+010.0000000000E+00+
*       -4.474029317E+00               0
GRID*                936               02.7430972758E+010.0000000000E+00+
*       -4.385639083E+00               0
GRID*                937               02.6518520137E+010.0000000000E+00+
*       -4.076020995E+00               0
GRID*                938               02.6506553759E+010.0000000000E+00+
*       -3.695889460E+00               0
GRID*                939               02.6147152458E+010.0000000000E+00+
*       -4.072706064E+00               0
GRID*                940               02.6181779029E+010.0000000000E+00+
*       -3.722145332E+00               0
GRID*                941               02.5797928265E+010.0000000000E+00+
*       -4.003720826E+00               0
GRID*                942               02.6838536888E+010.0000000000E+00+
*       -3.674089322E+00               0
GRID*                943               02.6899506849E+010.0000000000E+00+
*       -4.036151423E+00               0
GRID*                944               02.7113159291E+010.0000000000E+00+
*       -3.658212739E+00               0
GRID*                945               02.7275712296E+010.0000000000E+00+
*       -3.929879604E+00               0
GRID*                946               02.3223655625E+010.0000000000E+00+
*       -4.350716573E+00               0
GRID*                947               02.2669459599E+010.0000000000E+00+
*       -4.528119479E+00               0
GRID*                948               02.2051792964E+010.0000000000E+00+
*       -4.512848811E+00               0
GRID*                949               02.1519079852E+010.0000000000E+00+
*       -4.505780922E+00               0
GRID*                950               02.1007710128E+010.0000000000E+00+
*       -4.502511687E+00               0
GRID*                951               02.0503235909E+010.0000000000E+00+
*       -4.501061435E+00               0
GRID*                952               02.0001366216E+010.0000000000E+00+
*       -4.500442290E+00               0
GRID*                953               01.9500571876E+010.0000000000E+00+
*       -4.500182507E+00               0
GRID*                954               01.9000236168E+010.0000000000E+00+
*       -4.500074382E+00               0
GRID*                955               01.8500096141E+010.0000000000E+00+
*       -4.500029929E+00               0
GRID*                956               01.8000038644E+010.0000000000E+00+
*       -4.500011893E+00               0
GRID*                957               01.7500015383E+010.0000000000E+00+
*       -4.500004667E+00               0
GRID*                958               01.7000006090E+010.0000000000E+00+
*       -4.500001805E+00               0
GRID*                959               01.6500002413E+010.0000000000E+00+
*       -4.500000685E+00               0
GRID*                960               01.6000000967E+010.0000000000E+00+
*       -4.500000253E+00               0
GRID*                961               01.5500000398E+010.0000000000E+00+
*       -4.500000089E+00               0
GRID*                962               01.5000000172E+010.0000000000E+00+
*       -4.500000029E+00               0
GRID*                963               01.4500000080E+010.0000000000E+00+
*       -4.500000008E+00               0
GRID*                964               01.4000000040E+010.0000000000E+00+
*       -4.500000001E+00               0
GRID*                965               01.3500000022E+010.0000000000E+00+
*       -4.499999999E+00               0
GRID*                966               01.3000000012E+010.0000000000E+00+
*       -4.499999999E+00               0
GRID*                967               01.2500000007E+010.0000000000E+00+
*       -4.499999999E+00               0
GRID*                968               01.2000000004E+010.0000000000E+00+
*       -4.499999999E+00               0
GRID*                969               01.1500000003E+010.0000000000E+00+
*       -4.500000000E+00               0
GRID*                970               01.1000000002E+010.0000000000E+00+
*       -4.500000000E+00               0
GRID*                971               01.0500000001E+010.0000000000E+00+
*       -4.500000000E+00               0
GRID*                972               01.0000000001E+010.0000000000E+00+
*       -4.500000000E+00               0
GRID*                973               09.5000000003E+000.0000000000E+00+
*       -4.500000000E+00               0
GRID*                974               09.0000000002E+000.0000000000E+00+
*       -4.500000000E+00               0
GRID*                975               08.5000000001E+000.0000000000E+00+
*       -4.500000000E+00               0
GRID*                976               08.0000000001E+000.0000000000E+00+
*       -4.500000000E+00               0
GRID*                977               07.5000000000E+000.0000000000E+00+
*       -4.500000000E+00               0
GRID*                978               07.0000000000E+000.0000000000E+00+
*       -4.500000000E+00               0
GRID*                979               06.5000000000E+000.0000000000E+00+
*       -4.500000000E+00               0
GRID*                980               06.0000000000E+000.0000000000E+00+
*       -4.500000000E+00               0
GRID*                981               05.5000000000E+000.0000000000E+00+
*       -4.500000000E+00               0
GRID*                982               05.0000000000E+000.0000000000E+00+
*       -4.500000000E+00               0
GRID*                983               04.5000000000E+000.0000000000E+00+
*       -4.500000000E+00               0
GRID*                984               04.0000000000E+000.0000000000E+00+
*       -4.500000000E+00               0
GRID*                985               03.5000000000E+000.0000000000E+00+
*       -4.500000000E+00               0
GRID*                986               03.0000000000E+000.0000000000E+00+
*       -4.500000000E+00               0
GRID*                987               02.5000000000E+000.0000000000E+00+
*       -4.500000000E+00               0
GRID*                988               02.0000000000E+000.0000000000E+00+
*       -4.500000000E+00               0
GRID*                989               01.5000000000E+000.0000000000E+00+
*       -4.500000000E+00               0
GRID*                990               01.0000000000E+000.0000000000E+00+
*       -4.500000000E+00               0
GRID*                991               05.0000000000E-010.0000000000E+00+
*       -4.500000000E+00               0
GRID*                992               02.4468274629E-150.0000000000E+00+
*       -4.500000000E+00               0
GRID*                993               0-5.000000000E-010.0000000000E+00+
*       -4.500000000E+00               0
GRID*                994               0-1.000000000E+000.0000000000E+00+
*       -4.500000000E+00               0
GRID*                995               0-1.500000000E+000.0000000000E+00+
*       -4.500000000E+00               0
GRID*                996               0-2.000000000E+000.0000000000E+00+
*       -4.500000000E+00               0
GRID*                997               0-2.500000000E+000.0000000000E+00+
*       -4.500000000E+00               0
GRID*                998               0-3.000000000E+000.0000000000E+00+
*       -4.500000000E+00               0
GRID*                999               0-3.500000000E+000.0000000000E+00+
*       -4.500000000E+00               0
GRID*               1000               0-4.000000000E+000.0000000000E+00+
*       -4.500000000E+00               0
GRID*               1001               0-4.500000000E+000.0000000000E+00+
*       -4.500000000E+00               0
GRID*               1002               0-5.000000000E+000.0000000000E+00+
*       -4.500000000E+00               0
GRID*               1003               0-5.500000000E+000.0000000000E+00+
*       -4.500000000E+00               0
GRID*               1004               0-6.000000000E+000.0000000000E+00+
*       -4.500000000E+00               0
GRID*               1005               0-6.500000000E+000.0000000000E+00+
*       -4.500000000E+00               0
GRID*               1006               0-7.000000000E+000.0000000000E+00+
*       -4.500000000E+00               0
GRID*               1007               0-7.500000000E+000.0000000000E+00+
*       -4.500000000E+00               0
GRID*               1008               0-8.000000000E+000.0000000000E+00+
*       -4.500000000E+00               0
GRID*               1009               0-8.500000000E+000.0000000000E+00+
*       -4.500000000E+00               0
GRID*               1010               0-9.000000000E+000.0000000000E+00+
*       -4.500000000E+00               0
GRID*               1011               0-9.500000000E+000.0000000000E+00+
*       -4.500000000E+00               0
GRID*               1012               0-1.000000000E+010.0000000000E+00+
*       -4.500000000E+00               0
GRID*               1013               0-1.050000000E+010.0000000000E+00+
*       -4.500000000E+00               0
GRID*               1014               0-1.100000000E+010.0000000000E+00+
*       -4.500000000E+00               0
GRID*               1015               0-1.150000000E+010.0000000000E+00+
*       -4.500000000E+00               0
GRID*               1016               0-1.200000000E+010.0000000000E+00+
*       -4.500000000E+00               0
GRID*               1017               0-1.250000000E+010.0000000000E+00+
*       -4.500000001E+00               0
GRID*               1018               0-1.300000000E+010.0000000000E+00+
*       -4.500000001E+00               0
GRID*               1019               0-1.350000000E+010.0000000000E+00+
*       -4.500000002E+00               0
GRID*               1020               0-1.400000000E+010.0000000000E+00+
*       -4.500000004E+00               0
GRID*               1021               0-1.450000002E+010.0000000000E+00+
*       -4.500000007E+00               0
GRID*               1022               0-1.500000007E+010.0000000000E+00+
*       -4.500000014E+00               0
GRID*               1023               0-1.550000021E+010.0000000000E+00+
*       -4.500000030E+00               0
GRID*               1024               0-1.600000056E+010.0000000000E+00+
*       -4.500000069E+00               0
GRID*               1025               0-1.650000146E+010.0000000000E+00+
*       -4.500000166E+00               0
GRID*               1026               0-1.700000370E+010.0000000000E+00+
*       -4.500000413E+00               0
GRID*               1027               0-1.750000914E+010.0000000000E+00+
*       -4.500001036E+00               0
GRID*               1028               0-1.800002224E+010.0000000000E+00+
*       -4.500002602E+00               0
GRID*               1029               0-1.850005322E+010.0000000000E+00+
*       -4.500006499E+00               0
GRID*               1030               0-1.900012525E+010.0000000000E+00+
*       -4.500016055E+00               0
GRID*               1031               0-1.950028842E+010.0000000000E+00+
*       -4.500039016E+00               0
GRID*               1032               0-2.000065252E+010.0000000000E+00+
*       -4.500091653E+00               0
GRID*               1033               0-2.050146259E+010.0000000000E+00+
*       -4.500203499E+00               0
GRID*               1034               0-2.100328667E+010.0000000000E+00+
*       -4.500424303E+00               0
GRID*               1035               0-2.150754298E+010.0000000000E+00+
*       -4.500804854E+00               0
GRID*               1036               0-2.201820644E+010.0000000000E+00+
*       -4.501201361E+00               0
GRID*               1037               0-2.254855263E+010.0000000000E+00+
*       -4.500289179E+00               0
GRID*               1038               0-2.318219312E+010.0000000000E+00+
*       -4.488968938E+00               0
GRID*               1039               0-2.375632117E+010.0000000000E+00+
*       -4.260780217E+00               0
GRID*               1040               0-2.429095119E+010.0000000000E+00+
*       -4.083988807E+00               0
GRID*               1041               0-2.440114852E+010.0000000000E+00+
*       -4.548793063E+00               0
GRID*               1042               0-2.445909000E+010.0000000000E+00+
*       -5.028293910E+00               0
GRID*               1043               0-2.396510182E+010.0000000000E+00+
*       -5.080129947E+00               0
GRID*               1044               0-2.350951443E+010.0000000000E+00+
*       -5.101461748E+00               0
GRID*               1045               0-2.305980846E+010.0000000000E+00+
*       -5.029916908E+00               0
GRID*               1046               0-2.253556245E+010.0000000000E+00+
*       -5.010329180E+00               0
GRID*               1047               0-2.201803809E+010.0000000000E+00+
*       -5.004073800E+00               0
GRID*               1048               0-2.150873873E+010.0000000000E+00+
*       -5.001736604E+00               0
GRID*               1049               0-2.100415341E+010.0000000000E+00+
*       -5.000764463E+00               0
GRID*               1050               0-2.050194864E+010.0000000000E+00+
*       -5.000338785E+00               0
GRID*               1051               0-2.000090258E+010.0000000000E+00+
*       -5.000148989E+00               0
GRID*               1052               0-1.950041207E+010.0000000000E+00+
*       -5.000064481E+00               0
GRID*               1053               0-1.900018510E+010.0000000000E+00+
*       -5.000027429E+00               0
GRID*               1054               0-1.850008171E+010.0000000000E+00+
*       -5.000011492E+00               0
GRID*               1055               0-1.800003547E+010.0000000000E+00+
*       -5.000004755E+00               0
GRID*               1056               0-1.750001514E+010.0000000000E+00+
*       -5.000001948E+00               0
GRID*               1057               0-1.700000636E+010.0000000000E+00+
*       -5.000000794E+00               0
GRID*               1058               0-1.650000262E+010.0000000000E+00+
*       -5.000000323E+00               0
GRID*               1059               0-1.600000106E+010.0000000000E+00+
*       -5.000000133E+00               0
GRID*               1060               0-1.550000042E+010.0000000000E+00+
*       -5.000000056E+00               0
GRID*               1061               0-1.500000016E+010.0000000000E+00+
*       -5.000000024E+00               0
GRID*               1062               0-1.450000006E+010.0000000000E+00+
*       -5.000000011E+00               0
GRID*               1063               0-1.400000002E+010.0000000000E+00+
*       -5.000000005E+00               0
GRID*               1064               0-1.350000000E+010.0000000000E+00+
*       -5.000000003E+00               0
GRID*               1065               0-1.300000000E+010.0000000000E+00+
*       -5.000000001E+00               0
GRID*               1066               0-1.250000000E+010.0000000000E+00+
*       -5.000000001E+00               0
GRID*               1067               0-1.200000000E+010.0000000000E+00+
*       -5.000000000E+00               0
GRID*               1068               0-1.150000000E+010.0000000000E+00+
*       -5.000000000E+00               0
GRID*               1069               0-1.100000000E+010.0000000000E+00+
*       -5.000000000E+00               0
GRID*               1070               0-1.050000000E+010.0000000000E+00+
*       -5.000000000E+00               0
GRID*               1071               0-1.000000000E+010.0000000000E+00+
*       -5.000000000E+00               0
GRID*               1072               0-9.500000000E+000.0000000000E+00+
*       -5.000000000E+00               0
GRID*               1073               0-9.000000000E+000.0000000000E+00+
*       -5.000000000E+00               0
GRID*               1074               0-8.500000000E+000.0000000000E+00+
*       -5.000000000E+00               0
GRID*               1075               0-8.000000000E+000.0000000000E+00+
*       -5.000000000E+00               0
GRID*               1076               0-7.500000000E+000.0000000000E+00+
*       -5.000000000E+00               0
GRID*               1077               0-7.000000000E+000.0000000000E+00+
*       -5.000000000E+00               0
GRID*               1078               0-6.500000000E+000.0000000000E+00+
*       -5.000000000E+00               0
GRID*               1079               0-6.000000000E+000.0000000000E+00+
*       -5.000000000E+00               0
GRID*               1080               0-5.500000000E+000.0000000000E+00+
*       -5.000000000E+00               0
GRID*               1081               0-5.000000000E+000.0000000000E+00+
*       -5.000000000E+00               0
GRID*               1082               0-4.500000000E+000.0000000000E+00+
*       -5.000000000E+00               0
GRID*               1083               0-4.000000000E+000.0000000000E+00+
*       -5.000000000E+00               0
GRID*               1084               0-3.500000000E+000.0000000000E+00+
*       -5.000000000E+00               0
GRID*               1085               0-3.000000000E+000.0000000000E+00+
*       -5.000000000E+00               0
GRID*               1086               0-2.500000000E+000.0000000000E+00+
*       -5.000000000E+00               0
GRID*               1087               0-2.000000000E+000.0000000000E+00+
*       -5.000000000E+00               0
GRID*               1088               0-1.500000000E+000.0000000000E+00+
*       -5.000000000E+00               0
GRID*               1089               0-1.000000000E+000.0000000000E+00+
*       -5.000000000E+00               0
GRID*               1090               0-5.000000000E-010.0000000000E+00+
*       -5.000000000E+00               0
GRID*               1091               01.4682699501E-140.0000000000E+00+
*       -5.000000000E+00               0
GRID*               1092               05.0000000000E-010.0000000000E+00+
*       -5.000000000E+00               0
GRID*               1093               01.0000000000E+000.0000000000E+00+
*       -5.000000000E+00               0
GRID*               1094               01.5000000000E+000.0000000000E+00+
*       -5.000000000E+00               0
GRID*               1095               02.0000000000E+000.0000000000E+00+
*       -5.000000000E+00               0
GRID*               1096               02.5000000000E+000.0000000000E+00+
*       -5.000000000E+00               0
GRID*               1097               03.0000000000E+000.0000000000E+00+
*       -5.000000000E+00               0
GRID*               1098               03.5000000000E+000.0000000000E+00+
*       -5.000000000E+00               0
GRID*               1099               04.0000000000E+000.0000000000E+00+
*       -5.000000000E+00               0
GRID*               1100               04.5000000000E+000.0000000000E+00+
*       -5.000000000E+00               0
GRID*               1101               05.0000000000E+000.0000000000E+00+
*       -5.000000000E+00               0
GRID*               1102               05.5000000000E+000.0000000000E+00+
*       -5.000000000E+00               0
GRID*               1103               06.0000000000E+000.0000000000E+00+
*       -5.000000000E+00               0
GRID*               1104               06.5000000000E+000.0000000000E+00+
*       -5.000000000E+00               0
GRID*               1105               07.0000000000E+000.0000000000E+00+
*       -5.000000000E+00               0
GRID*               1106               07.5000000000E+000.0000000000E+00+
*       -5.000000000E+00               0
GRID*               1107               08.0000000001E+000.0000000000E+00+
*       -5.000000000E+00               0
GRID*               1108               08.5000000001E+000.0000000000E+00+
*       -5.000000000E+00               0
GRID*               1109               09.0000000002E+000.0000000000E+00+
*       -5.000000000E+00               0
GRID*               1110               09.5000000004E+000.0000000000E+00+
*       -5.000000000E+00               0
GRID*               1111               01.0000000001E+010.0000000000E+00+
*       -5.000000000E+00               0
GRID*               1112               01.0500000001E+010.0000000000E+00+
*       -5.000000000E+00               0
GRID*               1113               01.1000000002E+010.0000000000E+00+
*       -5.000000000E+00               0
GRID*               1114               01.1500000004E+010.0000000000E+00+
*       -4.999999999E+00               0
GRID*               1115               01.2000000006E+010.0000000000E+00+
*       -4.999999999E+00               0
GRID*               1116               01.2500000010E+010.0000000000E+00+
*       -4.999999999E+00               0
GRID*               1117               01.3000000017E+010.0000000000E+00+
*       -4.999999998E+00               0
GRID*               1118               01.3500000030E+010.0000000000E+00+
*       -4.999999998E+00               0
GRID*               1119               01.4000000053E+010.0000000000E+00+
*       -5.000000000E+00               0
GRID*               1120               01.4500000104E+010.0000000000E+00+
*       -5.000000008E+00               0
GRID*               1121               01.5000000220E+010.0000000000E+00+
*       -5.000000034E+00               0
GRID*               1122               01.5500000507E+010.0000000000E+00+
*       -5.000000110E+00               0
GRID*               1123               01.6000001234E+010.0000000000E+00+
*       -5.000000319E+00               0
GRID*               1124               01.6500003098E+010.0000000000E+00+
*       -5.000000874E+00               0
GRID*               1125               01.7000007887E+010.0000000000E+00+
*       -5.000002327E+00               0
GRID*               1126               01.7500020126E+010.0000000000E+00+
*       -5.000006074E+00               0
GRID*               1127               01.8000051125E+010.0000000000E+00+
*       -5.000015634E+00               0
GRID*               1128               01.8500128553E+010.0000000000E+00+
*       -5.000039751E+00               0
GRID*               1129               01.9000318218E+010.0000000000E+00+
*       -5.000099753E+00               0
GRID*               1130               01.9500771576E+010.0000000000E+00+
*       -5.000246570E+00               0
GRID*               1131               02.0001819169E+010.0000000000E+00+
*       -5.000606442E+00               0
GRID*               1132               02.0504129694E+010.0000000000E+00+
*       -5.001504600E+00               0
GRID*               1133               02.1008961979E+010.0000000000E+00+
*       -5.003709479E+00               0
GRID*               1134               02.1518530699E+010.0000000000E+00+
*       -5.008969623E+00               0
GRID*               1135               02.2035565100E+010.0000000000E+00+
*       -5.021519283E+00               0
GRID*               1136               02.2554073280E+010.0000000000E+00+
*       -5.052705634E+00               0
GRID*               1137               02.2997198612E+010.0000000000E+00+
*       -5.132540089E+00               0
GRID*               1138               02.3446189885E+010.0000000000E+00+
*       -5.119706323E+00               0
GRID*               1139               02.3381005976E+010.0000000000E+00+
*       -4.717519568E+00               0
GRID*               1140               0-2.390649393E+010.0000000000E+00+
*       -4.655203694E+00               0
GRID*               1141               0-2.351239716E+010.0000000000E+00+
*       -4.734634494E+00               0
GRID*               1142               02.2996304218E+010.0000000000E+00+
*       -4.776620890E+00               0
GRID*               1143               0-3.744457555E+010.0000000000E+00+
*       1.4147466031E+00               0
GRID*               1144               0-3.772521405E+010.0000000000E+00+
*       1.4101133620E+00               0
GRID*               1145               0-3.761651659E+010.0000000000E+00+
*       -5.920539151E-01               0
GRID*               1146               0-3.788903441E+010.0000000000E+00+
*       -5.174483789E-01               0
GRID*               1147               0-3.726334498E+010.0000000000E+00+
*       -2.039022988E+00               0
GRID*               1148               0-3.761194865E+010.0000000000E+00+
*       -1.144012872E+00               0
GRID*               1149               0-3.785747192E+010.0000000000E+00+
*       -8.836217007E-01               0
GRID*               1150               0-3.743547880E+010.0000000000E+00+
*       -1.692592099E+00               0
GRID*               1151               0-3.763841546E+010.0000000000E+00+
*       -8.865250394E-02               0
GRID*               1152               0-3.790947184E+010.0000000000E+00+
*       -4.983316817E-02               0
GRID*               1153               0-3.762014925E+010.0000000000E+00+
*       4.2444303121E-01               0
GRID*               1154               0-3.789038537E+010.0000000000E+00+
*       4.4722961048E-01               0
GRID*               1155               0-3.755330620E+010.0000000000E+00+
*       9.3322229771E-01               0
GRID*               1156               0-3.782720630E+010.0000000000E+00+
*       9.4240380957E-01               0
GRID*               1157               0-3.565708534E+010.0000000000E+00+
*       4.1064541880E+00               0
GRID*               1158               0-3.421085902E+010.0000000000E+00+
*       4.8887614393E+00               0
GRID*               1159               0-3.498432183E+010.0000000000E+00+
*       4.5906818176E+00               0
GRID*               1160               0-3.537417236E+010.0000000000E+00+
*       4.3470997383E+00               0
GRID*               1161               0-3.456719512E+010.0000000000E+00+
*       4.7837510757E+00               0
GRID*               1162               0-3.733671613E+010.0000000000E+00+
*       1.8365089691E+00               0
GRID*               1163               0-3.761688943E+010.0000000000E+00+
*       1.8082475570E+00               0
GRID*               1164               0-3.730397480E+010.0000000000E+00+
*       2.1969552245E+00               0
GRID*               1165               03.0029800437E+010.0000000000E+00+
*       5.1498613589E+00               0
GRID*               1166               03.0066446549E+010.0000000000E+00+
*       4.7116531650E+00               0
GRID*               1167               03.4138209958E+010.0000000000E+00+
*       5.1617799149E+00               0
GRID*               1168               03.3972315246E+010.0000000000E+00+
*       4.9314596510E+00               0
GRID*               1169               03.5889457993E+010.0000000000E+00+
*       4.2176529208E+00               0
GRID*               1170               03.5782393719E+010.0000000000E+00+
*       3.9610983905E+00               0
GRID*               1171               03.6124829965E+010.0000000000E+00+
*       3.6920813538E+00               0
GRID*               1172               03.6211248881E+010.0000000000E+00+
*       3.9595215549E+00               0
GRID*               1173               03.6441640137E+010.0000000000E+00+
*       3.5171320490E+00               0
GRID*               1174               03.5501430233E+010.0000000000E+00+
*       4.4989143368E+00               0
GRID*               1175               03.5384392279E+010.0000000000E+00+
*       4.2535556497E+00               0
GRID*               1176               03.5071429617E+010.0000000000E+00+
*       4.7579491712E+00               0
GRID*               1177               03.4943718053E+010.0000000000E+00+
*       4.5206395826E+00               0
GRID*               1178               03.4613879559E+010.0000000000E+00+
*       4.9803079994E+00               0
GRID*               1179               03.4472956844E+010.0000000000E+00+
*       4.7467603069E+00               0
GRID*               1180               03.1645499438E+010.0000000000E+00+
*       5.0908547431E+00               0
GRID*               1181               03.1595189912E+010.0000000000E+00+
*       5.3820014012E+00               0
GRID*               1182               03.1081856737E+010.0000000000E+00+
*       5.3262965788E+00               0
GRID*               1183               03.1126588703E+010.0000000000E+00+
*       5.0062967417E+00               0
GRID*               1184               03.0564641249E+010.0000000000E+00+
*       5.2478413773E+00               0
GRID*               1185               03.0607489290E+010.0000000000E+00+
*       4.8811930644E+00               0
GRID*               1186               03.2619753760E+010.0000000000E+00+
*       5.4189841335E+00               0
GRID*               1187               03.2704741298E+010.0000000000E+00+
*       5.1448646011E+00               0
GRID*               1188               03.3351259112E+010.0000000000E+00+
*       5.1213952939E+00               0
GRID*               1189               03.3661169992E+010.0000000000E+00+
*       5.3180462119E+00               0
GRID*               1190               03.3120222020E+010.0000000000E+00+
*       5.4093407514E+00               0
GRID*               1191               03.2109214056E+010.0000000000E+00+
*       5.4139965682E+00               0
GRID*               1192               03.2170344533E+010.0000000000E+00+
*       5.1385581262E+00               0
GRID*               1193               0-2.955010522E+010.0000000000E+00+
*       4.3673358227E+00               0
GRID*               1194               0-2.942758917E+010.0000000000E+00+
*       4.7337581338E+00               0
GRID*               1195               0-2.942221329E+010.0000000000E+00+
*       5.1255271357E+00               0
GRID*               1196               0-3.160175690E+010.0000000000E+00+
*       5.1829769989E+00               0
GRID*               1197               0-3.246261866E+010.0000000000E+00+
*       5.1872170185E+00               0
GRID*               1198               0-3.208461267E+010.0000000000E+00+
*       5.2104146288E+00               0
GRID*               1199               0-3.040154852E+010.0000000000E+00+
*       4.9700555706E+00               0
GRID*               1200               0-2.973643810E+010.0000000000E+00+
*       4.8152238594E+00               0
GRID*               1201               0-2.986045107E+010.0000000000E+00+
*       5.1306997148E+00               0
GRID*               1202               0-2.995714023E+010.0000000000E+00+
*       4.5877258255E+00               0
GRID*               1203               0-3.106440043E+010.0000000000E+00+
*       5.1088794576E+00               0
GRID*               1204               0-2.904160623E+010.0000000000E+00+
*       4.1007747927E+00               0
GRID*               1205               0-2.864117501E+010.0000000000E+00+
*       3.6583704585E+00               0
GRID*               1206               0-2.821334461E+010.0000000000E+00+
*       3.2590206077E+00               0
GRID*               1207               0-2.793422044E+010.0000000000E+00+
*       2.7432336953E+00               0
GRID*               1208               0-2.766515963E+010.0000000000E+00+
*       2.2862253280E+00               0
GRID*               1209               0-2.744051565E+010.0000000000E+00+
*       1.7974631649E+00               0
GRID*               1210               0-2.729066153E+010.0000000000E+00+
*       1.2875668310E+00               0
GRID*               1211               0-2.702350078E+010.0000000000E+00+
*       7.0997517580E-01               0
GRID*               1212               0-2.668770040E+010.0000000000E+00+
*       1.3705720201E+00               0
GRID*               1213               0-2.650600926E+010.0000000000E+00+
*       1.9043090942E+00               0
GRID*               1214               0-2.620645391E+010.0000000000E+00+
*       2.4284914613E+00               0
GRID*               1215               0-2.584054694E+010.0000000000E+00+
*       2.9176435908E+00               0
GRID*               1216               0-2.537135994E+010.0000000000E+00+
*       3.3951059554E+00               0
GRID*               1217               0-2.474142530E+010.0000000000E+00+
*       3.7515575949E+00               0
GRID*               1218               0-2.417459678E+010.0000000000E+00+
*       3.9067511961E+00               0
GRID*               1219               0-2.369903023E+010.0000000000E+00+
*       4.0561250113E+00               0
GRID*               1220               0-2.322496960E+010.0000000000E+00+
*       4.1760278539E+00               0
GRID*               1221               0-2.274225480E+010.0000000000E+00+
*       4.2799821525E+00               0
GRID*               1222               0-2.216037414E+010.0000000000E+00+
*       4.3745849552E+00               0
GRID*               1223               0-2.156129646E+010.0000000000E+00+
*       4.3877687616E+00               0
GRID*               1224               0-2.102571024E+010.0000000000E+00+
*       4.3908749583E+00               0
GRID*               1225               0-2.051129506E+010.0000000000E+00+
*       4.3916578631E+00               0
GRID*               1226               0-2.000520334E+010.0000000000E+00+
*       4.3918227594E+00               0
GRID*               1227               0-1.950246477E+010.0000000000E+00+
*       4.3923150467E+00               0
GRID*               1228               0-1.900118833E+010.0000000000E+00+
*       4.3922213699E+00               0
GRID*               1229               0-1.850056982E+010.0000000000E+00+
*       4.3926197317E+00               0
GRID*               1230               0-1.800027339E+010.0000000000E+00+
*       4.3924996384E+00               0
GRID*               1231               0-1.750013081E+010.0000000000E+00+
*       4.3923907270E+00               0
GRID*               1232               0-1.700006249E+010.0000000000E+00+
*       4.3923346573E+00               0
GRID*               1233               0-1.650002992E+010.0000000000E+00+
*       4.3923131172E+00               0
GRID*               1234               0-1.600001448E+010.0000000000E+00+
*       4.3923070580E+00               0
GRID*               1235               0-1.550000721E+010.0000000000E+00+
*       4.3923058623E+00               0
GRID*               1236               0-1.500000380E+010.0000000000E+00+
*       4.3923057842E+00               0
GRID*               1237               0-1.450000215E+010.0000000000E+00+
*       4.3923059042E+00               0
GRID*               1238               0-1.400000131E+010.0000000000E+00+
*       4.3923060342E+00               0
GRID*               1239               0-1.350000084E+010.0000000000E+00+
*       4.3923061407E+00               0
GRID*               1240               0-1.300000055E+010.0000000000E+00+
*       4.3923062210E+00               0
GRID*               1241               0-1.250000036E+010.0000000000E+00+
*       4.3923062786E+00               0
GRID*               1242               0-1.200000024E+010.0000000000E+00+
*       4.3923063181E+00               0
GRID*               1243               0-1.150000016E+010.0000000000E+00+
*       4.3923063444E+00               0
GRID*               1244               0-1.100000010E+010.0000000000E+00+
*       4.3923063616E+00               0
GRID*               1245               0-1.050000007E+010.0000000000E+00+
*       4.3923063726E+00               0
GRID*               1246               0-1.000000004E+010.0000000000E+00+
*       4.3923063796E+00               0
GRID*               1247               0-9.500000027E+000.0000000000E+00+
*       4.3923063841E+00               0
GRID*               1248               0-9.000000017E+000.0000000000E+00+
*       4.3923063869E+00               0
GRID*               1249               0-8.500000011E+000.0000000000E+00+
*       4.3923063886E+00               0
GRID*               1250               0-8.000000007E+000.0000000000E+00+
*       4.3923063897E+00               0
GRID*               1251               0-7.500000004E+000.0000000000E+00+
*       4.3923063904E+00               0
GRID*               1252               0-7.000000003E+000.0000000000E+00+
*       4.3923063909E+00               0
GRID*               1253               0-6.500000002E+000.0000000000E+00+
*       4.3923063911E+00               0
GRID*               1254               0-6.000000001E+000.0000000000E+00+
*       4.3923063913E+00               0
GRID*               1255               0-5.500000001E+000.0000000000E+00+
*       4.3923063914E+00               0
GRID*               1256               0-5.000000000E+000.0000000000E+00+
*       4.3923063913E+00               0
GRID*               1257               0-4.500000000E+000.0000000000E+00+
*       4.3923063910E+00               0
GRID*               1258               0-4.000000000E+000.0000000000E+00+
*       4.3923063899E+00               0
GRID*               1259               0-3.500000000E+000.0000000000E+00+
*       4.3923063860E+00               0
GRID*               1260               0-3.000000000E+000.0000000000E+00+
*       4.3923063733E+00               0
GRID*               1261               0-2.500000000E+000.0000000000E+00+
*       4.3923063321E+00               0
GRID*               1262               0-2.000000000E+000.0000000000E+00+
*       4.3923062021E+00               0
GRID*               1263               0-1.500000000E+000.0000000000E+00+
*       4.3923058001E+00               0
GRID*               1264               0-1.000000000E+000.0000000000E+00+
*       4.3923045853E+00               0
GRID*               1265               0-5.000000000E-010.0000000000E+00+
*       4.3923009978E+00               0
GRID*               1266               0-2.656940640E-120.0000000000E+00+
*       4.3922911982E+00               0
GRID*               1267               05.0000000000E-010.0000000000E+00+
*       4.3922676677E+00               0
GRID*               1268               01.0000000000E+000.0000000000E+00+
*       4.3922194042E+00               0
GRID*               1269               01.5000000000E+000.0000000000E+00+
*       4.3921407540E+00               0
GRID*               1270               02.0000000000E+000.0000000000E+00+
*       4.3920891851E+00               0
GRID*               1271               02.5000000000E+000.0000000000E+00+
*       4.3925611202E+00               0
GRID*               1272               03.0000000000E+000.0000000000E+00+
*       4.3924811100E+00               0
GRID*               1273               03.5000000000E+000.0000000000E+00+
*       4.3923881307E+00               0
GRID*               1274               04.0000000000E+000.0000000000E+00+
*       4.3923362301E+00               0
GRID*               1275               04.5000000000E+000.0000000000E+00+
*       4.3923149849E+00               0
GRID*               1276               05.0000000000E+000.0000000000E+00+
*       4.3923084746E+00               0
GRID*               1277               05.5000000000E+000.0000000000E+00+
*       4.3923068658E+00               0
GRID*               1278               06.0000000000E+000.0000000000E+00+
*       4.3923064977E+00               0
GRID*               1279               06.5000000000E+000.0000000000E+00+
*       4.3923064136E+00               0
GRID*               1280               07.0000000000E+000.0000000000E+00+
*       4.3923063913E+00               0
GRID*               1281               07.5000000000E+000.0000000000E+00+
*       4.3923063744E+00               0
GRID*               1282               08.0000000000E+000.0000000000E+00+
*       4.3923063324E+00               0
GRID*               1283               08.5000000000E+000.0000000000E+00+
*       4.3923062021E+00               0
GRID*               1284               09.0000000001E+000.0000000000E+00+
*       4.3923058001E+00               0
GRID*               1285               09.5000000002E+000.0000000000E+00+
*       4.3923045853E+00               0
GRID*               1286               01.0000000000E+010.0000000000E+00+
*       4.3923009977E+00               0
GRID*               1287               01.0500000001E+010.0000000000E+00+
*       4.3922911980E+00               0
GRID*               1288               01.1000000002E+010.0000000000E+00+
*       4.3922676671E+00               0
GRID*               1289               01.1500000004E+010.0000000000E+00+
*       4.3922194025E+00               0
GRID*               1290               01.2000000008E+010.0000000000E+00+
*       4.3921407488E+00               0
GRID*               1291               01.2500000015E+010.0000000000E+00+
*       4.3920891680E+00               0
GRID*               1292               01.3000000027E+010.0000000000E+00+
*       4.3925610565E+00               0
GRID*               1293               01.3500000048E+010.0000000000E+00+
*       4.3924809112E+00               0
GRID*               1294               01.4000000082E+010.0000000000E+00+
*       4.3923875207E+00               0
GRID*               1295               01.4500000129E+010.0000000000E+00+
*       4.3923343861E+00               0
GRID*               1296               01.5000000186E+010.0000000000E+00+
*       4.3923095082E+00               0
GRID*               1297               01.5500000231E+010.0000000000E+00+
*       4.3922930745E+00               0
GRID*               1298               01.6000000202E+010.0000000000E+00+
*       4.3922675581E+00               0
GRID*               1299               01.6499999954E+010.0000000000E+00+
*       4.3922177119E+00               0
GRID*               1300               01.6999999155E+010.0000000000E+00+
*       4.3921350022E+00               0
GRID*               1301               01.7499997071E+010.0000000000E+00+
*       4.3920709975E+00               0
GRID*               1302               01.7999991964E+010.0000000000E+00+
*       4.3925078430E+00               0
GRID*               1303               01.8499980842E+010.0000000000E+00+
*       4.3923481837E+00               0
GRID*               1304               01.8999956315E+010.0000000000E+00+
*       4.3920981588E+00               0
GRID*               1305               01.9499901463E+010.0000000000E+00+
*       4.3918358115E+00               0
GRID*               1306               01.9999768990E+010.0000000000E+00+
*       4.3920953467E+00               0
GRID*               1307               02.0499455617E+010.0000000000E+00+
*       4.3922745289E+00               0
GRID*               1308               02.0998791639E+010.0000000000E+00+
*       4.3923338057E+00               0
GRID*               1309               02.1497688877E+010.0000000000E+00+
*       4.3923340583E+00               0
GRID*               1310               02.1997371005E+010.0000000000E+00+
*       4.3930587421E+00               0
GRID*               1311               02.2508999116E+010.0000000000E+00+
*       4.4001223919E+00               0
GRID*               1312               02.3179632466E+010.0000000000E+00+
*       4.4588897967E+00               0
GRID*               1313               02.3811177918E+010.0000000000E+00+
*       4.2161467392E+00               0
GRID*               1314               02.4340403034E+010.0000000000E+00+
*       4.0069977261E+00               0
GRID*               1315               02.4976370333E+010.0000000000E+00+
*       3.7466235825E+00               0
GRID*               1316               02.5420705640E+010.0000000000E+00+
*       3.2782573573E+00               0
GRID*               1317               02.5794232466E+010.0000000000E+00+
*       2.8941300951E+00               0
GRID*               1318               02.6172768180E+010.0000000000E+00+
*       2.4789972067E+00               0
GRID*               1319               02.6659050702E+010.0000000000E+00+
*       1.9210528703E+00               0
GRID*               1320               02.6799340878E+010.0000000000E+00+
*       1.1400075403E+00               0
GRID*               1321               02.6851916424E+010.0000000000E+00+
*       5.2815004466E-01               0
GRID*               1322               02.6865025252E+010.0000000000E+00+
*       -4.867512019E-02               0
GRID*               1323               02.6842761026E+010.0000000000E+00+
*       -6.284875795E-01               0
GRID*               1324               02.6767979368E+010.0000000000E+00+
*       -1.237533488E+00               0
GRID*               1325               02.6582296489E+010.0000000000E+00+
*       -1.785575721E+00               0
GRID*               1326               02.6988656796E+010.0000000000E+00+
*       -1.931768131E+00               0
GRID*               1327               02.7286900341E+010.0000000000E+00+
*       -2.109931748E+00               0
GRID*               1328               02.7573177758E+010.0000000000E+00+
*       -1.909034612E+00               0
GRID*               1329               02.7272931847E+010.0000000000E+00+
*       -1.394168415E+00               0
GRID*               1330               02.7252697587E+010.0000000000E+00+
*       -6.780141937E-01               0
GRID*               1331               02.7244402359E+010.0000000000E+00+
*       -9.658356449E-02               0
GRID*               1332               02.7250210535E+010.0000000000E+00+
*       4.6928211354E-01               0
GRID*               1333               02.7272163039E+010.0000000000E+00+
*       1.0621735293E+00               0
GRID*               1334               02.7322516712E+010.0000000000E+00+
*       1.7929503496E+00               0
GRID*               1335               02.7680996292E+010.0000000000E+00+
*       2.2884745207E+00               0
GRID*               1336               02.7955631600E+010.0000000000E+00+
*       2.7293546727E+00               0
GRID*               1337               02.8242931306E+010.0000000000E+00+
*       3.1531236564E+00               0
GRID*               1338               02.8562894336E+010.0000000000E+00+
*       3.5603925582E+00               0
GRID*               1339               02.8921535129E+010.0000000000E+00+
*       3.9539979521E+00               0
GRID*               1340               02.9381925935E+010.0000000000E+00+
*       4.4601607389E+00               0
GRID*               1341               02.9448858679E+010.0000000000E+00+
*       5.0516459225E+00               0
GRID*               1342               02.8881516417E+010.0000000000E+00+
*       5.0629164066E+00               0
GRID*               1343               02.8377656049E+010.0000000000E+00+
*       5.1019701111E+00               0
GRID*               1344               02.7907820231E+010.0000000000E+00+
*       5.1223742307E+00               0
GRID*               1345               02.7451678558E+010.0000000000E+00+
*       5.1531576084E+00               0
GRID*               1346               02.7023242218E+010.0000000000E+00+
*       5.1801972726E+00               0
GRID*               1347               02.6620221771E+010.0000000000E+00+
*       5.1654746957E+00               0
GRID*               1348               02.6143336568E+010.0000000000E+00+
*       4.9860176992E+00               0
GRID*               1349               02.5542858465E+010.0000000000E+00+
*       5.0726433287E+00               0
GRID*               1350               02.5035170851E+010.0000000000E+00+
*       5.1200828870E+00               0
GRID*               1351               02.4567451014E+010.0000000000E+00+
*       5.1510907566E+00               0
GRID*               1352               02.4125557880E+010.0000000000E+00+
*       5.1379709624E+00               0
GRID*               1353               02.3554033408E+010.0000000000E+00+
*       4.9541044136E+00               0
GRID*               1354               02.2963978102E+010.0000000000E+00+
*       5.1297031423E+00               0
GRID*               1355               02.2477565590E+010.0000000000E+00+
*       5.1685883324E+00               0
GRID*               1356               02.1989161434E+010.0000000000E+00+
*       5.1811065038E+00               0
GRID*               1357               02.1495030036E+010.0000000000E+00+
*       5.1853793668E+00               0
GRID*               1358               02.0997776499E+010.0000000000E+00+
*       5.1867729542E+00               0
GRID*               1359               02.0499027905E+010.0000000000E+00+
*       5.1870965866E+00               0
GRID*               1360               01.9999581151E+010.0000000000E+00+
*       5.1869920059E+00               0
GRID*               1361               01.9499819611E+010.0000000000E+00+
*       5.1867645882E+00               0
GRID*               1362               01.8999921523E+010.0000000000E+00+
*       5.1871032343E+00               0
GRID*               1363               01.8499966185E+010.0000000000E+00+
*       5.1874065887E+00               0
GRID*               1364               01.7999985921E+010.0000000000E+00+
*       5.1875479377E+00               0
GRID*               1365               01.7499994713E+010.0000000000E+00+
*       5.1870648817E+00               0
GRID*               1366               01.6999998337E+010.0000000000E+00+
*       5.1871460606E+00               0
GRID*               1367               01.6499999747E+010.0000000000E+00+
*       5.1872446645E+00               0
GRID*               1368               01.6000000212E+010.0000000000E+00+
*       5.1873050955E+00               0
GRID*               1369               01.5500000298E+010.0000000000E+00+
*       5.1873368205E+00               0
GRID*               1370               01.5000000253E+010.0000000000E+00+
*       5.1873587147E+00               0
GRID*               1371               01.4500000180E+010.0000000000E+00+
*       5.1873965957E+00               0
GRID*               1372               01.4000000116E+010.0000000000E+00+
*       5.1874750359E+00               0
GRID*               1373               01.3500000069E+010.0000000000E+00+
*       5.1875868345E+00               0
GRID*               1374               01.3000000039E+010.0000000000E+00+
*       5.1876267661E+00               0
GRID*               1375               01.2500000022E+010.0000000000E+00+
*       5.1870957190E+00               0
GRID*               1376               01.2000000011E+010.0000000000E+00+
*       5.1871575898E+00               0
GRID*               1377               01.1500000006E+010.0000000000E+00+
*       5.1872488083E+00               0
GRID*               1378               01.1000000003E+010.0000000000E+00+
*       5.1873064496E+00               0
GRID*               1379               01.0500000001E+010.0000000000E+00+
*       5.1873362154E+00               0
GRID*               1380               01.0000000001E+010.0000000000E+00+
*       5.1873498523E+00               0
GRID*               1381               09.5000000003E+000.0000000000E+00+
*       5.1873555758E+00               0
GRID*               1382               09.0000000001E+000.0000000000E+00+
*       5.1873578263E+00               0
GRID*               1383               08.5000000001E+000.0000000000E+00+
*       5.1873586674E+00               0
GRID*               1384               08.0000000000E+000.0000000000E+00+
*       5.1873589691E+00               0
GRID*               1385               07.5000000000E+000.0000000000E+00+
*       5.1873590738E+00               0
GRID*               1386               07.0000000000E+000.0000000000E+00+
*       5.1873591098E+00               0
GRID*               1387               06.5000000000E+000.0000000000E+00+
*       5.1873591256E+00               0
GRID*               1388               06.0000000000E+000.0000000000E+00+
*       5.1873591509E+00               0
GRID*               1389               05.5000000000E+000.0000000000E+00+
*       5.1873592567E+00               0
GRID*               1390               05.0000000000E+000.0000000000E+00+
*       5.1873602656E+00               0
GRID*               1391               04.5000000000E+000.0000000000E+00+
*       5.1873681887E+00               0
GRID*               1392               04.0000000000E+000.0000000000E+00+
*       5.1874002259E+00               0
GRID*               1393               03.5000000000E+000.0000000000E+00+
*       5.1874763697E+00               0
GRID*               1394               03.0000000000E+000.0000000000E+00+
*       5.1875873084E+00               0
GRID*               1395               02.5000000000E+000.0000000000E+00+
*       5.1876269298E+00               0
GRID*               1396               02.0000000000E+000.0000000000E+00+
*       5.1870957709E+00               0
GRID*               1397               01.5000000000E+000.0000000000E+00+
*       5.1871576065E+00               0
GRID*               1398               01.0000000000E+000.0000000000E+00+
*       5.1872488137E+00               0
GRID*               1399               05.0000000000E-010.0000000000E+00+
*       5.1873064514E+00               0
GRID*               1400               0-4.569178369E-120.0000000000E+00+
*       5.1873362160E+00               0
GRID*               1401               0-5.000000000E-010.0000000000E+00+
*       5.1873498525E+00               0
GRID*               1402               0-1.000000000E+000.0000000000E+00+
*       5.1873555758E+00               0
GRID*               1403               0-1.500000000E+000.0000000000E+00+
*       5.1873578263E+00               0
GRID*               1404               0-2.000000000E+000.0000000000E+00+
*       5.1873586674E+00               0
GRID*               1405               0-2.500000000E+000.0000000000E+00+
*       5.1873589690E+00               0
GRID*               1406               0-3.000000000E+000.0000000000E+00+
*       5.1873590735E+00               0
GRID*               1407               0-3.500000000E+000.0000000000E+00+
*       5.1873591086E+00               0
GRID*               1408               0-4.000000000E+000.0000000000E+00+
*       5.1873591201E+00               0
GRID*               1409               0-4.500000000E+000.0000000000E+00+
*       5.1873591237E+00               0
GRID*               1410               0-5.000000001E+000.0000000000E+00+
*       5.1873591248E+00               0
GRID*               1411               0-5.500000001E+000.0000000000E+00+
*       5.1873591251E+00               0
GRID*               1412               0-6.000000002E+000.0000000000E+00+
*       5.1873591250E+00               0
GRID*               1413               0-6.500000003E+000.0000000000E+00+
*       5.1873591247E+00               0
GRID*               1414               0-7.000000005E+000.0000000000E+00+
*       5.1873591243E+00               0
GRID*               1415               0-7.500000008E+000.0000000000E+00+
*       5.1873591235E+00               0
GRID*               1416               0-8.000000012E+000.0000000000E+00+
*       5.1873591223E+00               0
GRID*               1417               0-8.500000019E+000.0000000000E+00+
*       5.1873591204E+00               0
GRID*               1418               0-9.000000030E+000.0000000000E+00+
*       5.1873591173E+00               0
GRID*               1419               0-9.500000046E+000.0000000000E+00+
*       5.1873591125E+00               0
GRID*               1420               0-1.000000007E+010.0000000000E+00+
*       5.1873591048E+00               0
GRID*               1421               0-1.050000011E+010.0000000000E+00+
*       5.1873590925E+00               0
GRID*               1422               0-1.100000017E+010.0000000000E+00+
*       5.1873590733E+00               0
GRID*               1423               0-1.150000027E+010.0000000000E+00+
*       5.1873590433E+00               0
GRID*               1424               0-1.200000041E+010.0000000000E+00+
*       5.1873589971E+00               0
GRID*               1425               0-1.250000062E+010.0000000000E+00+
*       5.1873589276E+00               0
GRID*               1426               0-1.300000094E+010.0000000000E+00+
*       5.1873588264E+00               0
GRID*               1427               0-1.350000142E+010.0000000000E+00+
*       5.1873586851E+00               0
GRID*               1428               0-1.400000218E+010.0000000000E+00+
*       5.1873584955E+00               0
GRID*               1429               0-1.450000354E+010.0000000000E+00+
*       5.1873582472E+00               0
GRID*               1430               0-1.500000619E+010.0000000000E+00+
*       5.1873579216E+00               0
GRID*               1431               0-1.550001176E+010.0000000000E+00+
*       5.1873575063E+00               0
GRID*               1432               0-1.600002369E+010.0000000000E+00+
*       5.1873576577E+00               0
GRID*               1433               0-1.650004915E+010.0000000000E+00+
*       5.1873641996E+00               0
GRID*               1434               0-1.700010298E+010.0000000000E+00+
*       5.1873950418E+00               0
GRID*               1435               0-1.750021622E+010.0000000000E+00+
*       5.1874754328E+00               0
GRID*               1436               0-1.800045357E+010.0000000000E+00+
*       5.1876094923E+00               0
GRID*               1437               0-1.850094779E+010.0000000000E+00+
*       5.1877047159E+00               0
GRID*               1438               0-1.900196571E+010.0000000000E+00+
*       5.1872522937E+00               0
GRID*               1439               0-1.950400146E+010.0000000000E+00+
*       5.1873066450E+00               0
GRID*               1440               0-2.000816620E+010.0000000000E+00+
*       5.1867830978E+00               0
GRID*               1441               0-2.051713730E+010.0000000000E+00+
*       5.1867746971E+00               0
GRID*               1442               0-2.103763479E+010.0000000000E+00+
*       5.1866488901E+00               0
GRID*               1443               0-2.158467139E+010.0000000000E+00+
*       5.1867598508E+00               0
GRID*               1444               0-2.219146606E+010.0000000000E+00+
*       5.1918189337E+00               0
GRID*               1445               0-2.273590296E+010.0000000000E+00+
*       5.2713931710E+00               0
GRID*               1446               0-2.316482950E+010.0000000000E+00+
*       5.3425422703E+00               0
GRID*               1447               0-2.355905394E+010.0000000000E+00+
*       5.3603350413E+00               0
GRID*               1448               0-2.397328279E+010.0000000000E+00+
*       5.3409714368E+00               0
GRID*               1449               0-2.441278039E+010.0000000000E+00+
*       5.2956718833E+00               0
GRID*               1450               0-2.487566584E+010.0000000000E+00+
*       5.2131111468E+00               0
GRID*               1451               0-2.542765389E+010.0000000000E+00+
*       5.0067937600E+00               0
GRID*               1452               0-2.605557762E+010.0000000000E+00+
*       5.0236632403E+00               0
GRID*               1453               0-2.658674965E+010.0000000000E+00+
*       5.0692220004E+00               0
GRID*               1454               0-2.706253843E+010.0000000000E+00+
*       5.1212415262E+00               0
GRID*               1455               0-2.749428479E+010.0000000000E+00+
*       5.1588266101E+00               0
GRID*               1456               0-2.789692363E+010.0000000000E+00+
*       5.1510253128E+00               0
GRID*               1457               0-2.836613401E+010.0000000000E+00+
*       4.9786594017E+00               0
GRID*               1458               0-2.893973957E+010.0000000000E+00+
*       5.0650500270E+00               0
GRID*               1459               0-2.898897453E+010.0000000000E+00+
*       4.6081299289E+00               0
GRID*               1460               02.7400599933E+010.0000000000E+00+
*       4.7427931895E+00               0
GRID*               1461               02.7290078812E+010.0000000000E+00+
*       4.3281372631E+00               0
GRID*               1462               02.7100104156E+010.0000000000E+00+
*       3.9286715115E+00               0
GRID*               1463               02.6887158645E+010.0000000000E+00+
*       3.5541192994E+00               0
GRID*               1464               02.6662236048E+010.0000000000E+00+
*       3.1974627209E+00               0
GRID*               1465               02.6423394512E+010.0000000000E+00+
*       2.8463875010E+00               0
GRID*               1466               02.6810432086E+010.0000000000E+00+
*       2.5019834710E+00               0
GRID*               1467               02.7190938807E+010.0000000000E+00+
*       2.2873146583E+00               0
GRID*               1468               02.7389114427E+010.0000000000E+00+
*       2.6309949668E+00               0
GRID*               1469               02.7626802768E+010.0000000000E+00+
*       3.0208336209E+00               0
GRID*               1470               02.7893132429E+010.0000000000E+00+
*       3.4251913970E+00               0
GRID*               1471               02.8189985458E+010.0000000000E+00+
*       3.8261037718E+00               0
GRID*               1472               02.8505907160E+010.0000000000E+00+
*       4.1596291967E+00               0
GRID*               1473               02.8745937360E+010.0000000000E+00+
*       4.5849413472E+00               0
GRID*               1474               02.8279781035E+010.0000000000E+00+
*       4.6782292401E+00               0
GRID*               1475               02.7844782747E+010.0000000000E+00+
*       4.6805397741E+00               0
GRID*               1476               02.7791015013E+010.0000000000E+00+
*       4.1670685944E+00               0
GRID*               1477               02.7511736772E+010.0000000000E+00+
*       3.7020363263E+00               0
GRID*               1478               02.7264898432E+010.0000000000E+00+
*       3.2963367855E+00               0
GRID*               1479               02.7031217134E+010.0000000000E+00+
*       2.9070994566E+00               0
GRID*               1480               02.8169567474E+010.0000000000E+00+
*       4.3253470258E+00               0
GRID*               1481               02.4978616426E+010.0000000000E+00+
*       4.2626419569E+00               0
GRID*               1482               02.5020569647E+010.0000000000E+00+
*       4.6955818603E+00               0
GRID*               1483               02.4476822737E+010.0000000000E+00+
*       4.3984750320E+00               0
GRID*               1484               02.4580232548E+010.0000000000E+00+
*       4.7681461508E+00               0
GRID*               1485               02.4037222605E+010.0000000000E+00+
*       4.5693314257E+00               0
GRID*               1486               02.4263749442E+010.0000000000E+00+
*       4.8220137726E+00               0
GRID*               1487               02.6519485541E+010.0000000000E+00+
*       3.7917186420E+00               0
GRID*               1488               02.6176093149E+010.0000000000E+00+
*       4.0052216406E+00               0
GRID*               1489               02.5846550112E+010.0000000000E+00+
*       4.1733990652E+00               0
GRID*               1490               02.5461409732E+010.0000000000E+00+
*       4.2209468408E+00               0
GRID*               1491               02.6309183549E+010.0000000000E+00+
*       3.4749762254E+00               0
GRID*               1492               02.6063731323E+010.0000000000E+00+
*       3.1811993102E+00               0
GRID*               1493               02.5778537285E+010.0000000000E+00+
*       3.9096923458E+00               0
GRID*               1494               02.5501914296E+010.0000000000E+00+
*       3.8338606826E+00               0
GRID*               1495               02.5742334996E+010.0000000000E+00+
*       3.5002820655E+00               0
GRID*               1496               02.5999941231E+010.0000000000E+00+
*       3.7226598643E+00               0
GRID*               1497               02.5958828958E+010.0000000000E+00+
*       4.5309377125E+00               0
GRID*               1498               02.5498919368E+010.0000000000E+00+
*       4.6313854115E+00               0
GRID*               1499               02.6710560000E+010.0000000000E+00+
*       4.1311168933E+00               0
GRID*               1500               02.6344789056E+010.0000000000E+00+
*       4.3276419044E+00               0
GRID*               1501               02.6530163720E+010.0000000000E+00+
*       4.6467293071E+00               0
GRID*               1502               02.6733508421E+010.0000000000E+00+
*       4.8745871096E+00               0
GRID*               1503               02.6883692364E+010.0000000000E+00+
*       4.4793634819E+00               0
GRID*               1504               02.7013064299E+010.0000000000E+00+
*       4.8186550309E+00               0
GRID*               1505               0-1.900192825E+010.0000000000E+00+
*       4.7885041487E+00               0
GRID*               1506               0-2.347726044E+010.0000000000E+00+
*       4.6061071151E+00               0
GRID*               1507               0-2.394528982E+010.0000000000E+00+
*       5.0439416632E+00               0
GRID*               1508               0-2.621120382E+010.0000000000E+00+
*       3.2250643203E+00               0
GRID*               1509               0-2.664572178E+010.0000000000E+00+
*       3.4874183163E+00               0
GRID*               1510               0-2.706608169E+010.0000000000E+00+
*       3.7196353607E+00               0
GRID*               1511               0-2.745873766E+010.0000000000E+00+
*       3.9225694475E+00               0
GRID*               1512               0-2.783384983E+010.0000000000E+00+
*       4.1019482281E+00               0
GRID*               1513               0-2.819514967E+010.0000000000E+00+
*       4.3067286595E+00               0
GRID*               1514               0-2.855791159E+010.0000000000E+00+
*       4.5258029633E+00               0
GRID*               1515               0-2.731688657E+010.0000000000E+00+
*       3.3281105203E+00               0
GRID*               1516               0-2.759401456E+010.0000000000E+00+
*       2.9949377357E+00               0
GRID*               1517               0-2.697446752E+010.0000000000E+00+
*       1.6493632599E+00               0
GRID*               1518               0-2.695511477E+010.0000000000E+00+
*       3.0395958810E+00               0
GRID*               1519               0-2.658168837E+010.0000000000E+00+
*       2.7199405084E+00               0
GRID*               1520               0-2.728808343E+010.0000000000E+00+
*       2.6268752635E+00               0
GRID*               1521               0-2.802360900E+010.0000000000E+00+
*       3.7293482052E+00               0
GRID*               1522               0-2.838626566E+010.0000000000E+00+
*       3.9756332722E+00               0
GRID*               1523               0-2.867975941E+010.0000000000E+00+
*       4.2039572295E+00               0
GRID*               1524               0-2.784324160E+010.0000000000E+00+
*       3.2747476059E+00               0
GRID*               1525               0-2.766024679E+010.0000000000E+00+
*       3.5666242483E+00               0
GRID*               1526               0-2.510273473E+010.0000000000E+00+
*       4.8017053538E+00               0
GRID*               1527               0-2.508234776E+010.0000000000E+00+
*       4.4769430417E+00               0
GRID*               1528               0-2.384103520E+010.0000000000E+00+
*       4.5202430549E+00               0
GRID*               1529               0-2.423462750E+010.0000000000E+00+
*       4.4207276838E+00               0
GRID*               1530               0-2.461182014E+010.0000000000E+00+
*       4.3019290082E+00               0
GRID*               1531               0-2.418213142E+010.0000000000E+00+
*       4.1657499245E+00               0
GRID*               1532               0-2.452703743E+010.0000000000E+00+
*       4.0506088702E+00               0
GRID*               1533               0-2.377079107E+010.0000000000E+00+
*       4.2853283543E+00               0
GRID*               1534               0-2.435240581E+010.0000000000E+00+
*       4.9834584802E+00               0
GRID*               1535               0-2.429353400E+010.0000000000E+00+
*       4.6943267565E+00               0
GRID*               1536               0-2.390342531E+010.0000000000E+00+
*       4.7738084051E+00               0
GRID*               1537               0-2.475721438E+010.0000000000E+00+
*       4.8983854823E+00               0
GRID*               1538               0-2.468573615E+010.0000000000E+00+
*       4.5954449915E+00               0
GRID*               1539               0-2.684634800E+010.0000000000E+00+
*       4.1525826418E+00               0
GRID*               1540               0-2.668725943E+010.0000000000E+00+
*       4.6078192856E+00               0
GRID*               1541               0-2.765824872E+010.0000000000E+00+
*       4.4558183644E+00               0
GRID*               1542               0-2.751740764E+010.0000000000E+00+
*       4.7920377175E+00               0
GRID*               1543               0-2.800159191E+010.0000000000E+00+
*       4.6313332466E+00               0
GRID*               1544               0-2.779389169E+010.0000000000E+00+
*       4.8560311924E+00               0
GRID*               1545               0-2.727585890E+010.0000000000E+00+
*       4.3080999089E+00               0
GRID*               1546               0-2.713660543E+010.0000000000E+00+
*       4.7063645888E+00               0
GRID*               1547               0-2.570412464E+010.0000000000E+00+
*       3.8351162793E+00               0
GRID*               1548               0-2.635003932E+010.0000000000E+00+
*       3.9903704457E+00               0
GRID*               1549               0-2.617202209E+010.0000000000E+00+
*       4.5169354336E+00               0
GRID*               1550               0-2.558971881E+010.0000000000E+00+
*       4.4705439441E+00               0
GRID*               1551               0-2.356056818E+010.0000000000E+00+
*       4.8298209485E+00               0
GRID*               1552               0-2.357520878E+010.0000000000E+00+
*       5.0805480142E+00               0
GRID*               1553               0-2.000831924E+010.0000000000E+00+
*       4.7878948910E+00               0
GRID*               1554               0-1.950395922E+010.0000000000E+00+
*       4.7891917196E+00               0
GRID*               1555               0-2.051815401E+010.0000000000E+00+
*       4.7880247737E+00               0
GRID*               1556               0-2.104227515E+010.0000000000E+00+
*       4.7871609655E+00               0
GRID*               1557               0-2.160814288E+010.0000000000E+00+
*       4.7835043375E+00               0
GRID*               1558               0-2.237160745E+010.0000000000E+00+
*       4.7639082931E+00               0
GRID*               1559               0-2.318683407E+010.0000000000E+00+
*       4.7198260112E+00               0
GRID*               1560               0-2.333559030E+010.0000000000E+00+
*       4.8690364420E+00               0
GRID*               1561               0-2.296215252E+010.0000000000E+00+
*       4.5266222437E+00               0
GRID*               1562               0-2.336298115E+010.0000000000E+00+
*       4.3942921654E+00               0
GRID*               1563               0-2.325870163E+010.0000000000E+00+
*       5.0727483987E+00               0
GRID*               1564               0-2.293275709E+010.0000000000E+00+
*       4.9594685829E+00               0
GRID*               1565               02.0000000000E+000.0000000000E+00+
*       4.7882551551E+00               0
GRID*               1566               01.2500000022E+010.0000000000E+00+
*       4.7882551088E+00               0
GRID*               1567               01.7499994708E+010.0000000000E+00+
*       4.7882225699E+00               0
GRID*               1568               01.6999998209E+010.0000000000E+00+
*       4.7886097119E+00               0
GRID*               1569               01.6499999634E+010.0000000000E+00+
*       4.7887558707E+00               0
GRID*               1570               01.6000000133E+010.0000000000E+00+
*       4.7888250282E+00               0
GRID*               1571               01.5500000248E+010.0000000000E+00+
*       4.7888601885E+00               0
GRID*               1572               01.5000000224E+010.0000000000E+00+
*       4.7888863905E+00               0
GRID*               1573               01.4500000164E+010.0000000000E+00+
*       4.7889303379E+00               0
GRID*               1574               01.4000000107E+010.0000000000E+00+
*       4.7890215439E+00               0
GRID*               1575               01.3500000065E+010.0000000000E+00+
*       4.7891952852E+00               0
GRID*               1576               01.3000000037E+010.0000000000E+00+
*       4.7895637924E+00               0
GRID*               1577               01.9499827282E+010.0000000000E+00+
*       4.7878225550E+00               0
GRID*               1578               01.8999923050E+010.0000000000E+00+
*       4.7885646601E+00               0
GRID*               1579               01.8499966341E+010.0000000000E+00+
*       4.7889952265E+00               0
GRID*               1580               01.7999985683E+010.0000000000E+00+
*       4.7894783065E+00               0
GRID*               1581               01.9999592064E+010.0000000000E+00+
*       4.7884817168E+00               0
GRID*               1582               02.0499039586E+010.0000000000E+00+
*       4.7886913320E+00               0
GRID*               1583               02.0997789079E+010.0000000000E+00+
*       4.7885284591E+00               0
GRID*               1584               02.1494972461E+010.0000000000E+00+
*       4.7876925720E+00               0
GRID*               1585               02.1987988065E+010.0000000000E+00+
*       4.7855248353E+00               0
GRID*               1586               02.2465723566E+010.0000000000E+00+
*       4.7809202078E+00               0
GRID*               1587               02.2877415380E+010.0000000000E+00+
*       4.7728041611E+00               0
GRID*               1588               01.2000000011E+010.0000000000E+00+
*       4.7886219149E+00               0
GRID*               1589               01.1500000006E+010.0000000000E+00+
*       4.7887601920E+00               0
GRID*               1590               01.1000000003E+010.0000000000E+00+
*       4.7888261443E+00               0
GRID*               1591               01.0500000001E+010.0000000000E+00+
*       4.7888580033E+00               0
GRID*               1592               01.0000000001E+010.0000000000E+00+
*       4.7888724025E+00               0
GRID*               1593               09.5000000003E+000.0000000000E+00+
*       4.7888784226E+00               0
GRID*               1594               09.0000000001E+000.0000000000E+00+
*       4.7888807816E+00               0
GRID*               1595               08.5000000001E+000.0000000000E+00+
*       4.7888816634E+00               0
GRID*               1596               08.0000000000E+000.0000000000E+00+
*       4.7888819810E+00               0
GRID*               1597               07.5000000000E+000.0000000000E+00+
*       4.7888820923E+00               0
GRID*               1598               07.0000000000E+000.0000000000E+00+
*       4.7888821329E+00               0
GRID*               1599               06.5000000000E+000.0000000000E+00+
*       4.7888821597E+00               0
GRID*               1600               06.0000000000E+000.0000000000E+00+
*       4.7888822309E+00               0
GRID*               1601               05.5000000000E+000.0000000000E+00+
*       4.7888825941E+00               0
GRID*               1602               05.0000000000E+000.0000000000E+00+
*       4.7888848923E+00               0
GRID*               1603               04.5000000000E+000.0000000000E+00+
*       4.7888963436E+00               0
GRID*               1604               04.0000000000E+000.0000000000E+00+
*       4.7889341454E+00               0
GRID*               1605               03.5000000000E+000.0000000000E+00+
*       4.7890229451E+00               0
GRID*               1606               03.0000000000E+000.0000000000E+00+
*       4.7891957853E+00               0
GRID*               1607               02.5000000000E+000.0000000000E+00+
*       4.7895639677E+00               0
GRID*               1608               01.5000000000E+000.0000000000E+00+
*       4.7886219312E+00               0
GRID*               1609               01.0000000000E+000.0000000000E+00+
*       4.7887601976E+00               0
GRID*               1610               05.0000000000E-010.0000000000E+00+
*       4.7888261461E+00               0
GRID*               1611               0-4.242300955E-120.0000000000E+00+
*       4.7888580039E+00               0
GRID*               1612               0-5.000000000E-010.0000000000E+00+
*       4.7888724027E+00               0
GRID*               1613               0-1.000000000E+000.0000000000E+00+
*       4.7888784226E+00               0
GRID*               1614               0-1.500000000E+000.0000000000E+00+
*       4.7888807816E+00               0
GRID*               1615               0-2.000000000E+000.0000000000E+00+
*       4.7888816634E+00               0
GRID*               1616               0-2.500000000E+000.0000000000E+00+
*       4.7888819808E+00               0
GRID*               1617               0-3.000000000E+000.0000000000E+00+
*       4.7888820915E+00               0
GRID*               1618               0-3.500000000E+000.0000000000E+00+
*       4.7888821290E+00               0
GRID*               1619               0-4.000000000E+000.0000000000E+00+
*       4.7888821414E+00               0
GRID*               1620               0-4.500000000E+000.0000000000E+00+
*       4.7888821454E+00               0
GRID*               1621               0-5.000000001E+000.0000000000E+00+
*       4.7888821466E+00               0
GRID*               1622               0-5.500000001E+000.0000000000E+00+
*       4.7888821469E+00               0
GRID*               1623               0-6.000000002E+000.0000000000E+00+
*       4.7888821469E+00               0
GRID*               1624               0-6.500000003E+000.0000000000E+00+
*       4.7888821467E+00               0
GRID*               1625               0-7.000000004E+000.0000000000E+00+
*       4.7888821462E+00               0
GRID*               1626               0-7.500000007E+000.0000000000E+00+
*       4.7888821456E+00               0
GRID*               1627               0-8.000000011E+000.0000000000E+00+
*       4.7888821445E+00               0
GRID*               1628               0-8.500000017E+000.0000000000E+00+
*       4.7888821427E+00               0
GRID*               1629               0-9.000000027E+000.0000000000E+00+
*       4.7888821399E+00               0
GRID*               1630               0-9.500000043E+000.0000000000E+00+
*       4.7888821355E+00               0
GRID*               1631               0-1.000000007E+010.0000000000E+00+
*       4.7888821284E+00               0
GRID*               1632               0-1.050000010E+010.0000000000E+00+
*       4.7888821173E+00               0
GRID*               1633               0-1.100000016E+010.0000000000E+00+
*       4.7888820999E+00               0
GRID*               1634               0-1.150000025E+010.0000000000E+00+
*       4.7888820728E+00               0
GRID*               1635               0-1.200000038E+010.0000000000E+00+
*       4.7888820312E+00               0
GRID*               1636               0-1.250000057E+010.0000000000E+00+
*       4.7888819690E+00               0
GRID*               1637               0-1.300000086E+010.0000000000E+00+
*       4.7888818792E+00               0
GRID*               1638               0-1.350000130E+010.0000000000E+00+
*       4.7888817548E+00               0
GRID*               1639               0-1.400000204E+010.0000000000E+00+
*       4.7888815894E+00               0
GRID*               1640               0-1.450000337E+010.0000000000E+00+
*       4.7888813784E+00               0
GRID*               1641               0-1.500000602E+010.0000000000E+00+
*       4.7888811327E+00               0
GRID*               1642               0-1.550001159E+010.0000000000E+00+
*       4.7888810276E+00               0
GRID*               1643               0-1.600002346E+010.0000000000E+00+
*       4.7888826012E+00               0
GRID*               1644               0-1.650004869E+010.0000000000E+00+
*       4.7888931517E+00               0
GRID*               1645               0-1.700010190E+010.0000000000E+00+
*       4.7889313391E+00               0
GRID*               1646               0-1.750021353E+010.0000000000E+00+
*       4.7890278608E+00               0
GRID*               1647               0-1.800044610E+010.0000000000E+00+
*       4.7892287848E+00               0
GRID*               1648               0-1.850092444E+010.0000000000E+00+
*       4.7896612658E+00               0
GRID*               1649               0-2.925937894E+010.0000000000E+00+
*       -4.896972951E+00               0
GRID*               1650               0-2.632910405E+010.0000000000E+00+
*       -3.623433657E+00               0
GRID*               1651               02.5923531807E+010.0000000000E+00+
*       -3.743778611E+00               0
GRID*               1652               0-2.695719778E+010.0000000000E+00+
*       2.1586235762E+00               0
GRID*               1653               03.3408432150E+010.0000000000E+00+
*       5.4714205135E+00               0
GRID*               1654               0-2.498862783E+010.0000000000E+00+
*       4.0977630438E+00               0
GRID*               1655               0-3.754867895E+010.0000000000E+00+
*       2.0748730690E+00               0
GRID*               1656               03.6428053617E+010.0000000000E+00+
*       3.7900793054E+00               0
GRID*               1657               0-2.252672451E+010.0000000000E+00+
*       3.7485703702E+00               0
GRID*               1658               0-2.200000000E+010.0000000000E+00+
*       3.7499217787E+00               0
GRID*               1659               0-2.227672451E+010.0000000000E+00+
*       3.9984921489E+00               0
GRID*               1660               0-2.150000000E+010.0000000000E+00+
*       3.7500000000E+00               0
GRID*               1661               0-2.175000000E+010.0000000000E+00+
*       3.9999217787E+00               0
GRID*               1662               0-2.100000000E+010.0000000000E+00+
*       3.7500000000E+00               0
GRID*               1663               0-2.125000000E+010.0000000000E+00+
*       4.0000000000E+00               0
GRID*               1664               0-2.050000000E+010.0000000000E+00+
*       3.7500000000E+00               0
GRID*               1665               0-2.075000000E+010.0000000000E+00+
*       4.0000000000E+00               0
GRID*               1666               0-2.000000000E+010.0000000000E+00+
*       3.7500000000E+00               0
GRID*               1667               0-2.025000000E+010.0000000000E+00+
*       4.0000000000E+00               0
GRID*               1668               0-1.950000000E+010.0000000000E+00+
*       3.7500000000E+00               0
GRID*               1669               0-1.975000000E+010.0000000000E+00+
*       4.0000000000E+00               0
GRID*               1670               0-1.900000000E+010.0000000000E+00+
*       3.7500000000E+00               0
GRID*               1671               0-1.925000000E+010.0000000000E+00+
*       4.0000000000E+00               0
GRID*               1672               0-1.850000000E+010.0000000000E+00+
*       3.7500000000E+00               0
GRID*               1673               0-1.875000000E+010.0000000000E+00+
*       4.0000000000E+00               0
GRID*               1674               0-1.800000000E+010.0000000000E+00+
*       3.7500000000E+00               0
GRID*               1675               0-1.825000000E+010.0000000000E+00+
*       4.0000000000E+00               0
GRID*               1676               0-1.750000000E+010.0000000000E+00+
*       3.7500000000E+00               0
GRID*               1677               0-1.775000000E+010.0000000000E+00+
*       4.0000000000E+00               0
GRID*               1678               0-1.700000000E+010.0000000000E+00+
*       3.7500000000E+00               0
GRID*               1679               0-1.725000000E+010.0000000000E+00+
*       4.0000000000E+00               0
GRID*               1680               0-1.650000000E+010.0000000000E+00+
*       3.7500000000E+00               0
GRID*               1681               0-1.675000000E+010.0000000000E+00+
*       4.0000000000E+00               0
GRID*               1682               0-1.600000000E+010.0000000000E+00+
*       3.7500000000E+00               0
GRID*               1683               0-1.625000000E+010.0000000000E+00+
*       4.0000000000E+00               0
GRID*               1684               0-1.550000000E+010.0000000000E+00+
*       3.7500000000E+00               0
GRID*               1685               0-1.575000000E+010.0000000000E+00+
*       4.0000000000E+00               0
GRID*               1686               0-1.500000000E+010.0000000000E+00+
*       3.7500000000E+00               0
GRID*               1687               0-1.525000000E+010.0000000000E+00+
*       4.0000000000E+00               0
GRID*               1688               0-1.450000000E+010.0000000000E+00+
*       3.7500000000E+00               0
GRID*               1689               0-1.475000000E+010.0000000000E+00+
*       4.0000000000E+00               0
GRID*               1690               0-1.400000000E+010.0000000000E+00+
*       3.7500000000E+00               0
GRID*               1691               0-1.425000000E+010.0000000000E+00+
*       4.0000000000E+00               0
GRID*               1692               0-1.350000000E+010.0000000000E+00+
*       3.7500000000E+00               0
GRID*               1693               0-1.375000000E+010.0000000000E+00+
*       4.0000000000E+00               0
GRID*               1694               0-1.300000000E+010.0000000000E+00+
*       3.7500000000E+00               0
GRID*               1695               0-1.325000000E+010.0000000000E+00+
*       4.0000000000E+00               0
GRID*               1696               0-1.250000000E+010.0000000000E+00+
*       3.7500000000E+00               0
GRID*               1697               0-1.275000000E+010.0000000000E+00+
*       4.0000000000E+00               0
GRID*               1698               0-1.200000000E+010.0000000000E+00+
*       3.7500000000E+00               0
GRID*               1699               0-1.225000000E+010.0000000000E+00+
*       4.0000000000E+00               0
GRID*               1700               0-1.150000000E+010.0000000000E+00+
*       3.7500000000E+00               0
GRID*               1701               0-1.175000000E+010.0000000000E+00+
*       4.0000000000E+00               0
GRID*               1702               0-1.100000000E+010.0000000000E+00+
*       3.7500000000E+00               0
GRID*               1703               0-1.125000000E+010.0000000000E+00+
*       4.0000000000E+00               0
GRID*               1704               0-1.050000000E+010.0000000000E+00+
*       3.7500000000E+00               0
GRID*               1705               0-1.075000000E+010.0000000000E+00+
*       4.0000000000E+00               0
GRID*               1706               0-1.000000000E+010.0000000000E+00+
*       3.7500000000E+00               0
GRID*               1707               0-1.025000000E+010.0000000000E+00+
*       4.0000000000E+00               0
GRID*               1708               0-9.500000000E+000.0000000000E+00+
*       3.7500000000E+00               0
GRID*               1709               0-9.750000000E+000.0000000000E+00+
*       4.0000000000E+00               0
GRID*               1710               0-9.000000000E+000.0000000000E+00+
*       3.7500000000E+00               0
GRID*               1711               0-9.250000000E+000.0000000000E+00+
*       4.0000000000E+00               0
GRID*               1712               0-8.500000000E+000.0000000000E+00+
*       3.7500000000E+00               0
GRID*               1713               0-8.750000000E+000.0000000000E+00+
*       4.0000000000E+00               0
GRID*               1714               0-8.000000000E+000.0000000000E+00+
*       3.7500000000E+00               0
GRID*               1715               0-8.250000000E+000.0000000000E+00+
*       4.0000000000E+00               0
GRID*               1716               0-7.500000000E+000.0000000000E+00+
*       3.7500000000E+00               0
GRID*               1717               0-7.750000000E+000.0000000000E+00+
*       4.0000000000E+00               0
GRID*               1718               0-7.000000000E+000.0000000000E+00+
*       3.7500000000E+00               0
GRID*               1719               0-7.250000000E+000.0000000000E+00+
*       4.0000000000E+00               0
GRID*               1720               0-6.500000000E+000.0000000000E+00+
*       3.7500000000E+00               0
GRID*               1721               0-6.750000000E+000.0000000000E+00+
*       4.0000000000E+00               0
GRID*               1722               0-6.000000000E+000.0000000000E+00+
*       3.7500000000E+00               0
GRID*               1723               0-6.250000000E+000.0000000000E+00+
*       4.0000000000E+00               0
GRID*               1724               0-5.500000000E+000.0000000000E+00+
*       3.7500000000E+00               0
GRID*               1725               0-5.750000000E+000.0000000000E+00+
*       4.0000000000E+00               0
GRID*               1726               0-5.000000000E+000.0000000000E+00+
*       3.7500000000E+00               0
GRID*               1727               0-5.250000000E+000.0000000000E+00+
*       4.0000000000E+00               0
GRID*               1728               0-4.500000000E+000.0000000000E+00+
*       3.7500000000E+00               0
GRID*               1729               0-4.750000000E+000.0000000000E+00+
*       4.0000000000E+00               0
GRID*               1730               0-4.000000000E+000.0000000000E+00+
*       3.7500000000E+00               0
GRID*               1731               0-4.250000000E+000.0000000000E+00+
*       4.0000000000E+00               0
GRID*               1732               0-3.500000000E+000.0000000000E+00+
*       3.7500000000E+00               0
GRID*               1733               0-3.750000000E+000.0000000000E+00+
*       4.0000000000E+00               0
GRID*               1734               0-3.000000000E+000.0000000000E+00+
*       3.7500000000E+00               0
GRID*               1735               0-3.250000000E+000.0000000000E+00+
*       4.0000000000E+00               0
GRID*               1736               0-2.500000000E+000.0000000000E+00+
*       3.7500000000E+00               0
GRID*               1737               0-2.750000000E+000.0000000000E+00+
*       4.0000000000E+00               0
GRID*               1738               0-2.000000000E+000.0000000000E+00+
*       3.7500000000E+00               0
GRID*               1739               0-2.250000000E+000.0000000000E+00+
*       4.0000000000E+00               0
GRID*               1740               0-1.500000000E+000.0000000000E+00+
*       3.7500000000E+00               0
GRID*               1741               0-1.750000000E+000.0000000000E+00+
*       4.0000000000E+00               0
GRID*               1742               0-1.000000000E+000.0000000000E+00+
*       3.7500000000E+00               0
GRID*               1743               0-1.250000000E+000.0000000000E+00+
*       4.0000000000E+00               0
GRID*               1744               0-5.000000000E-010.0000000000E+00+
*       3.7500000000E+00               0
GRID*               1745               0-7.500000000E-010.0000000000E+00+
*       4.0000000000E+00               0
GRID*               1746               0-3.240463453E-150.0000000000E+00+
*       3.7500000000E+00               0
GRID*               1747               0-2.500000000E-010.0000000000E+00+
*       4.0000000000E+00               0
GRID*               1748               05.0000000000E-010.0000000000E+00+
*       3.7500000000E+00               0
GRID*               1749               02.5000000000E-010.0000000000E+00+
*       4.0000000000E+00               0
GRID*               1750               01.0000000000E+000.0000000000E+00+
*       3.7500000000E+00               0
GRID*               1751               07.5000000000E-010.0000000000E+00+
*       4.0000000000E+00               0
GRID*               1752               01.5000000000E+000.0000000000E+00+
*       3.7500000000E+00               0
GRID*               1753               01.2500000000E+000.0000000000E+00+
*       4.0000000000E+00               0
GRID*               1754               02.0000000000E+000.0000000000E+00+
*       3.7500000000E+00               0
GRID*               1755               01.7500000000E+000.0000000000E+00+
*       4.0000000000E+00               0
GRID*               1756               02.5000000000E+000.0000000000E+00+
*       3.7500000000E+00               0
GRID*               1757               02.2500000000E+000.0000000000E+00+
*       4.0000000000E+00               0
GRID*               1758               03.0000000000E+000.0000000000E+00+
*       3.7500000000E+00               0
GRID*               1759               02.7500000000E+000.0000000000E+00+
*       4.0000000000E+00               0
GRID*               1760               03.5000000000E+000.0000000000E+00+
*       3.7500000000E+00               0
GRID*               1761               03.2500000000E+000.0000000000E+00+
*       4.0000000000E+00               0
GRID*               1762               04.0000000000E+000.0000000000E+00+
*       3.7500000000E+00               0
GRID*               1763               03.7500000000E+000.0000000000E+00+
*       4.0000000000E+00               0
GRID*               1764               04.5000000000E+000.0000000000E+00+
*       3.7500000000E+00               0
GRID*               1765               04.2500000000E+000.0000000000E+00+
*       4.0000000000E+00               0
GRID*               1766               05.0000000000E+000.0000000000E+00+
*       3.7500000000E+00               0
GRID*               1767               04.7500000000E+000.0000000000E+00+
*       4.0000000000E+00               0
GRID*               1768               05.5000000000E+000.0000000000E+00+
*       3.7500000000E+00               0
GRID*               1769               05.2500000000E+000.0000000000E+00+
*       4.0000000000E+00               0
GRID*               1770               06.0000000000E+000.0000000000E+00+
*       3.7500000000E+00               0
GRID*               1771               05.7500000000E+000.0000000000E+00+
*       4.0000000000E+00               0
GRID*               1772               06.5000000000E+000.0000000000E+00+
*       3.7500000000E+00               0
GRID*               1773               06.2500000000E+000.0000000000E+00+
*       4.0000000000E+00               0
GRID*               1774               07.0000000000E+000.0000000000E+00+
*       3.7500000000E+00               0
GRID*               1775               06.7500000000E+000.0000000000E+00+
*       4.0000000000E+00               0
GRID*               1776               07.5000000000E+000.0000000000E+00+
*       3.7500000000E+00               0
GRID*               1777               07.2500000000E+000.0000000000E+00+
*       4.0000000000E+00               0
GRID*               1778               08.0000000000E+000.0000000000E+00+
*       3.7500000000E+00               0
GRID*               1779               07.7500000000E+000.0000000000E+00+
*       4.0000000000E+00               0
GRID*               1780               08.5000000000E+000.0000000000E+00+
*       3.7500000000E+00               0
GRID*               1781               08.2500000000E+000.0000000000E+00+
*       4.0000000000E+00               0
GRID*               1782               09.0000000000E+000.0000000000E+00+
*       3.7500000000E+00               0
GRID*               1783               08.7500000000E+000.0000000000E+00+
*       4.0000000000E+00               0
GRID*               1784               09.5000000000E+000.0000000000E+00+
*       3.7500000000E+00               0
GRID*               1785               09.2500000000E+000.0000000000E+00+
*       4.0000000000E+00               0
GRID*               1786               01.0000000000E+010.0000000000E+00+
*       3.7500000000E+00               0
GRID*               1787               09.7500000000E+000.0000000000E+00+
*       4.0000000000E+00               0
GRID*               1788               01.0500000000E+010.0000000000E+00+
*       3.7500000000E+00               0
GRID*               1789               01.0250000000E+010.0000000000E+00+
*       4.0000000000E+00               0
GRID*               1790               01.1000000000E+010.0000000000E+00+
*       3.7500000000E+00               0
GRID*               1791               01.0750000000E+010.0000000000E+00+
*       4.0000000000E+00               0
GRID*               1792               01.1500000000E+010.0000000000E+00+
*       3.7500000000E+00               0
GRID*               1793               01.1250000000E+010.0000000000E+00+
*       4.0000000000E+00               0
GRID*               1794               01.2000000000E+010.0000000000E+00+
*       3.7500000000E+00               0
GRID*               1795               01.1750000000E+010.0000000000E+00+
*       4.0000000000E+00               0
GRID*               1796               01.2500000000E+010.0000000000E+00+
*       3.7500000000E+00               0
GRID*               1797               01.2250000000E+010.0000000000E+00+
*       4.0000000000E+00               0
GRID*               1798               01.3000000000E+010.0000000000E+00+
*       3.7500000000E+00               0
GRID*               1799               01.2750000000E+010.0000000000E+00+
*       4.0000000000E+00               0
GRID*               1800               01.3500000000E+010.0000000000E+00+
*       3.7500000000E+00               0
GRID*               1801               01.3250000000E+010.0000000000E+00+
*       4.0000000000E+00               0
GRID*               1802               01.4000000000E+010.0000000000E+00+
*       3.7500000000E+00               0
GRID*               1803               01.3750000000E+010.0000000000E+00+
*       4.0000000000E+00               0
GRID*               1804               01.4500000000E+010.0000000000E+00+
*       3.7500000000E+00               0
GRID*               1805               01.4250000000E+010.0000000000E+00+
*       4.0000000000E+00               0
GRID*               1806               01.5000000000E+010.0000000000E+00+
*       3.7500000000E+00               0
GRID*               1807               01.4750000000E+010.0000000000E+00+
*       4.0000000000E+00               0
GRID*               1808               01.5500000000E+010.0000000000E+00+
*       3.7500000000E+00               0
GRID*               1809               01.5250000000E+010.0000000000E+00+
*       4.0000000000E+00               0
GRID*               1810               01.6000000000E+010.0000000000E+00+
*       3.7500000000E+00               0
GRID*               1811               01.5750000000E+010.0000000000E+00+
*       4.0000000000E+00               0
GRID*               1812               01.6500000000E+010.0000000000E+00+
*       3.7500000000E+00               0
GRID*               1813               01.6250000000E+010.0000000000E+00+
*       4.0000000000E+00               0
GRID*               1814               01.7000000000E+010.0000000000E+00+
*       3.7500000000E+00               0
GRID*               1815               01.6750000000E+010.0000000000E+00+
*       4.0000000000E+00               0
GRID*               1816               01.7500000000E+010.0000000000E+00+
*       3.7500000000E+00               0
GRID*               1817               01.7250000000E+010.0000000000E+00+
*       4.0000000000E+00               0
GRID*               1818               01.8000000000E+010.0000000000E+00+
*       3.7500000000E+00               0
GRID*               1819               01.7750000000E+010.0000000000E+00+
*       4.0000000000E+00               0
GRID*               1820               01.8500000000E+010.0000000000E+00+
*       3.7500000000E+00               0
GRID*               1821               01.8250000000E+010.0000000000E+00+
*       4.0000000000E+00               0
GRID*               1822               01.9000000000E+010.0000000000E+00+
*       3.7500000000E+00               0
GRID*               1823               01.8750000000E+010.0000000000E+00+
*       4.0000000000E+00               0
GRID*               1824               01.9500000000E+010.0000000000E+00+
*       3.7500000000E+00               0
GRID*               1825               01.9250000000E+010.0000000000E+00+
*       4.0000000000E+00               0
GRID*               1826               02.0000000000E+010.0000000000E+00+
*       3.7500000000E+00               0
GRID*               1827               01.9750000000E+010.0000000000E+00+
*       4.0000000000E+00               0
GRID*               1828               02.0500000000E+010.0000000000E+00+
*       3.7500000000E+00               0
GRID*               1829               02.0250000000E+010.0000000000E+00+
*       4.0000000000E+00               0
GRID*               1830               02.1000000000E+010.0000000000E+00+
*       3.7500000000E+00               0
GRID*               1831               02.0750000000E+010.0000000000E+00+
*       4.0000000000E+00               0
GRID*               1832               02.1500000000E+010.0000000000E+00+
*       3.7500000000E+00               0
GRID*               1833               02.1250000000E+010.0000000000E+00+
*       4.0000000000E+00               0
GRID*               1834               02.2000000000E+010.0000000000E+00+
*       3.7499217787E+00               0
GRID*               1835               02.1750000000E+010.0000000000E+00+
*       3.9999217787E+00               0
GRID*               1836               02.2491076672E+010.0000000000E+00+
*       3.7498435563E+00               0
GRID*               1837               02.2241076672E+010.0000000000E+00+
*       3.9997653350E+00               0
GRID*               1838               02.3033737952E+010.0000000000E+00+
*       3.7122290527E+00               0
GRID*               1839               02.2775763704E+010.0000000000E+00+
*       3.9798853678E+00               0
GRID*               1840               02.3556588603E+010.0000000000E+00+
*       3.5984104056E+00               0
GRID*               1841               02.3348243679E+010.0000000000E+00+
*       3.8993395198E+00               0
GRID*               1842               02.4057941050E+010.0000000000E+00+
*       3.4114149532E+00               0
GRID*               1843               02.3894521561E+010.0000000000E+00+
*       3.7388569406E+00               0
GRID*               1844               02.4527578493E+010.0000000000E+00+
*       3.1549738971E+00               0
GRID*               1845               02.4412422073E+010.0000000000E+00+
*       3.5023395581E+00               0
GRID*               1846               02.4955940301E+010.0000000000E+00+
*       2.8343061340E+00               0
GRID*               1847               02.4891391305E+010.0000000000E+00+
*       3.1945248490E+00               0
GRID*               1848               02.5334306088E+010.0000000000E+00+
*       2.4559401866E+00               0
GRID*               1849               02.5321678677E+010.0000000000E+00+
*       2.8216785767E+00               0
GRID*               1850               02.5654973533E+010.0000000000E+00+
*       2.0275785124E+00               0
GRID*               1851               02.5694524621E+010.0000000000E+00+
*       2.3913912841E+00               0
GRID*               1852               02.5911415345E+010.0000000000E+00+
*       1.5579415176E+00               0
GRID*               1853               02.6002339491E+010.0000000000E+00+
*       1.9124224635E+00               0
GRID*               1854               02.6098410882E+010.0000000000E+00+
*       1.0565885037E+00               0
GRID*               1855               02.6238857407E+010.0000000000E+00+
*       1.3945216704E+00               0
GRID*               1856               02.6212150562E+010.0000000000E+00+
*       5.3372661391E-01               0
GRID*               1857               02.6399261753E+010.0000000000E+00+
*       8.4823216971E-01               0
GRID*               1858               02.6250324967E+010.0000000000E+00+
*       0.0000000000E+00               0
GRID*               1859               02.6480288713E+010.0000000000E+00+
*       2.8467573223E-01               0
GRID*               1860               02.6212150562E+010.0000000000E+00+
*       -5.337266139E-01               0
GRID*               1861               02.6480288713E+010.0000000000E+00+
*       -2.846757322E-01               0
GRID*               1862               02.6098410882E+010.0000000000E+00+
*       -1.056588504E+00               0
GRID*               1863               02.6399261753E+010.0000000000E+00+
*       -8.482321697E-01               0
GRID*               1864               02.5911415345E+010.0000000000E+00+
*       -1.557941518E+00               0
GRID*               1865               02.6238857407E+010.0000000000E+00+
*       -1.394521670E+00               0
GRID*               1866               02.5654973533E+010.0000000000E+00+
*       -2.027578512E+00               0
GRID*               1867               02.6002339491E+010.0000000000E+00+
*       -1.912422464E+00               0
GRID*               1868               02.5334306088E+010.0000000000E+00+
*       -2.455940187E+00               0
GRID*               1869               02.5694524621E+010.0000000000E+00+
*       -2.391391284E+00               0
GRID*               1870               02.4955940301E+010.0000000000E+00+
*       -2.834306134E+00               0
GRID*               1871               02.5321678677E+010.0000000000E+00+
*       -2.821678577E+00               0
GRID*               1872               02.4527578493E+010.0000000000E+00+
*       -3.154973897E+00               0
GRID*               1873               02.4891391305E+010.0000000000E+00+
*       -3.194524849E+00               0
GRID*               1874               02.4057941050E+010.0000000000E+00+
*       -3.411414953E+00               0
GRID*               1875               02.4412422073E+010.0000000000E+00+
*       -3.502339558E+00               0
GRID*               1876               02.3556588603E+010.0000000000E+00+
*       -3.598410406E+00               0
GRID*               1877               02.3894521561E+010.0000000000E+00+
*       -3.738856941E+00               0
GRID*               1878               02.3033737952E+010.0000000000E+00+
*       -3.712229053E+00               0
GRID*               1879               02.3348243679E+010.0000000000E+00+
*       -3.899339520E+00               0
GRID*               1880               02.2526724511E+010.0000000000E+00+
*       -3.748570370E+00               0
GRID*               1881               02.2811411543E+010.0000000000E+00+
*       -3.978612182E+00               0
GRID*               1882               02.2000000000E+010.0000000000E+00+
*       -3.749921779E+00               0
GRID*               1883               02.2276724511E+010.0000000000E+00+
*       -3.998492149E+00               0
GRID*               1884               02.1500000000E+010.0000000000E+00+
*       -3.750000000E+00               0
GRID*               1885               02.1750000000E+010.0000000000E+00+
*       -3.999921779E+00               0
GRID*               1886               02.1000000000E+010.0000000000E+00+
*       -3.750000000E+00               0
GRID*               1887               02.1250000000E+010.0000000000E+00+
*       -4.000000000E+00               0
GRID*               1888               02.0500000000E+010.0000000000E+00+
*       -3.750000000E+00               0
GRID*               1889               02.0750000000E+010.0000000000E+00+
*       -4.000000000E+00               0
GRID*               1890               02.0000000000E+010.0000000000E+00+
*       -3.750000000E+00               0
GRID*               1891               02.0250000000E+010.0000000000E+00+
*       -4.000000000E+00               0
GRID*               1892               01.9500000000E+010.0000000000E+00+
*       -3.750000000E+00               0
GRID*               1893               01.9750000000E+010.0000000000E+00+
*       -4.000000000E+00               0
GRID*               1894               01.9000000000E+010.0000000000E+00+
*       -3.750000000E+00               0
GRID*               1895               01.9250000000E+010.0000000000E+00+
*       -4.000000000E+00               0
GRID*               1896               01.8500000000E+010.0000000000E+00+
*       -3.750000000E+00               0
GRID*               1897               01.8750000000E+010.0000000000E+00+
*       -4.000000000E+00               0
GRID*               1898               01.8000000000E+010.0000000000E+00+
*       -3.750000000E+00               0
GRID*               1899               01.8250000000E+010.0000000000E+00+
*       -4.000000000E+00               0
GRID*               1900               01.7500000000E+010.0000000000E+00+
*       -3.750000000E+00               0
GRID*               1901               01.7750000000E+010.0000000000E+00+
*       -4.000000000E+00               0
GRID*               1902               01.7000000000E+010.0000000000E+00+
*       -3.750000000E+00               0
GRID*               1903               01.7250000000E+010.0000000000E+00+
*       -4.000000000E+00               0
GRID*               1904               01.6500000000E+010.0000000000E+00+
*       -3.750000000E+00               0
GRID*               1905               01.6750000000E+010.0000000000E+00+
*       -4.000000000E+00               0
GRID*               1906               01.6000000000E+010.0000000000E+00+
*       -3.750000000E+00               0
GRID*               1907               01.6250000000E+010.0000000000E+00+
*       -4.000000000E+00               0
GRID*               1908               01.5500000000E+010.0000000000E+00+
*       -3.750000000E+00               0
GRID*               1909               01.5750000000E+010.0000000000E+00+
*       -4.000000000E+00               0
GRID*               1910               01.5000000000E+010.0000000000E+00+
*       -3.750000000E+00               0
GRID*               1911               01.5250000000E+010.0000000000E+00+
*       -4.000000000E+00               0
GRID*               1912               01.4500000000E+010.0000000000E+00+
*       -3.750000000E+00               0
GRID*               1913               01.4750000000E+010.0000000000E+00+
*       -4.000000000E+00               0
GRID*               1914               01.4000000000E+010.0000000000E+00+
*       -3.750000000E+00               0
GRID*               1915               01.4250000000E+010.0000000000E+00+
*       -4.000000000E+00               0
GRID*               1916               01.3500000000E+010.0000000000E+00+
*       -3.750000000E+00               0
GRID*               1917               01.3750000000E+010.0000000000E+00+
*       -4.000000000E+00               0
GRID*               1918               01.3000000000E+010.0000000000E+00+
*       -3.750000000E+00               0
GRID*               1919               01.3250000000E+010.0000000000E+00+
*       -4.000000000E+00               0
GRID*               1920               01.2500000000E+010.0000000000E+00+
*       -3.750000000E+00               0
GRID*               1921               01.2750000000E+010.0000000000E+00+
*       -4.000000000E+00               0
GRID*               1922               01.2000000000E+010.0000000000E+00+
*       -3.750000000E+00               0
GRID*               1923               01.2250000000E+010.0000000000E+00+
*       -4.000000000E+00               0
GRID*               1924               01.1500000000E+010.0000000000E+00+
*       -3.750000000E+00               0
GRID*               1925               01.1750000000E+010.0000000000E+00+
*       -4.000000000E+00               0
GRID*               1926               01.1000000000E+010.0000000000E+00+
*       -3.750000000E+00               0
GRID*               1927               01.1250000000E+010.0000000000E+00+
*       -4.000000000E+00               0
GRID*               1928               01.0500000000E+010.0000000000E+00+
*       -3.750000000E+00               0
GRID*               1929               01.0750000000E+010.0000000000E+00+
*       -4.000000000E+00               0
GRID*               1930               01.0000000000E+010.0000000000E+00+
*       -3.750000000E+00               0
GRID*               1931               01.0250000000E+010.0000000000E+00+
*       -4.000000000E+00               0
GRID*               1932               09.5000000000E+000.0000000000E+00+
*       -3.750000000E+00               0
GRID*               1933               09.7500000000E+000.0000000000E+00+
*       -4.000000000E+00               0
GRID*               1934               09.0000000000E+000.0000000000E+00+
*       -3.750000000E+00               0
GRID*               1935               09.2500000000E+000.0000000000E+00+
*       -4.000000000E+00               0
GRID*               1936               08.5000000000E+000.0000000000E+00+
*       -3.750000000E+00               0
GRID*               1937               08.7500000000E+000.0000000000E+00+
*       -4.000000000E+00               0
GRID*               1938               08.0000000000E+000.0000000000E+00+
*       -3.750000000E+00               0
GRID*               1939               08.2500000000E+000.0000000000E+00+
*       -4.000000000E+00               0
GRID*               1940               07.5000000000E+000.0000000000E+00+
*       -3.750000000E+00               0
GRID*               1941               07.7500000000E+000.0000000000E+00+
*       -4.000000000E+00               0
GRID*               1942               07.0000000000E+000.0000000000E+00+
*       -3.750000000E+00               0
GRID*               1943               07.2500000000E+000.0000000000E+00+
*       -4.000000000E+00               0
GRID*               1944               06.5000000000E+000.0000000000E+00+
*       -3.750000000E+00               0
GRID*               1945               06.7500000000E+000.0000000000E+00+
*       -4.000000000E+00               0
GRID*               1946               06.0000000000E+000.0000000000E+00+
*       -3.750000000E+00               0
GRID*               1947               06.2500000000E+000.0000000000E+00+
*       -4.000000000E+00               0
GRID*               1948               05.5000000000E+000.0000000000E+00+
*       -3.750000000E+00               0
GRID*               1949               05.7500000000E+000.0000000000E+00+
*       -4.000000000E+00               0
GRID*               1950               05.0000000000E+000.0000000000E+00+
*       -3.750000000E+00               0
GRID*               1951               05.2500000000E+000.0000000000E+00+
*       -4.000000000E+00               0
GRID*               1952               04.5000000000E+000.0000000000E+00+
*       -3.750000000E+00               0
GRID*               1953               04.7500000000E+000.0000000000E+00+
*       -4.000000000E+00               0
GRID*               1954               04.0000000000E+000.0000000000E+00+
*       -3.750000000E+00               0
GRID*               1955               04.2500000000E+000.0000000000E+00+
*       -4.000000000E+00               0
GRID*               1956               03.5000000000E+000.0000000000E+00+
*       -3.750000000E+00               0
GRID*               1957               03.7500000000E+000.0000000000E+00+
*       -4.000000000E+00               0
GRID*               1958               03.0000000000E+000.0000000000E+00+
*       -3.750000000E+00               0
GRID*               1959               03.2500000000E+000.0000000000E+00+
*       -4.000000000E+00               0
GRID*               1960               02.5000000000E+000.0000000000E+00+
*       -3.750000000E+00               0
GRID*               1961               02.7500000000E+000.0000000000E+00+
*       -4.000000000E+00               0
GRID*               1962               02.0000000000E+000.0000000000E+00+
*       -3.750000000E+00               0
GRID*               1963               02.2500000000E+000.0000000000E+00+
*       -4.000000000E+00               0
GRID*               1964               01.5000000000E+000.0000000000E+00+
*       -3.750000000E+00               0
GRID*               1965               01.7500000000E+000.0000000000E+00+
*       -4.000000000E+00               0
GRID*               1966               01.0000000000E+000.0000000000E+00+
*       -3.750000000E+00               0
GRID*               1967               01.2500000000E+000.0000000000E+00+
*       -4.000000000E+00               0
GRID*               1968               05.0000000000E-010.0000000000E+00+
*       -3.750000000E+00               0
GRID*               1969               07.5000000000E-010.0000000000E+00+
*       -4.000000000E+00               0
GRID*               1970               0-1.998401444E-150.0000000000E+00+
*       -3.750000000E+00               0
GRID*               1971               02.5000000000E-010.0000000000E+00+
*       -4.000000000E+00               0
GRID*               1972               0-5.000000000E-010.0000000000E+00+
*       -3.750000000E+00               0
GRID*               1973               0-2.500000000E-010.0000000000E+00+
*       -4.000000000E+00               0
GRID*               1974               0-1.000000000E+000.0000000000E+00+
*       -3.750000000E+00               0
GRID*               1975               0-7.500000000E-010.0000000000E+00+
*       -4.000000000E+00               0
GRID*               1976               0-1.500000000E+000.0000000000E+00+
*       -3.750000000E+00               0
GRID*               1977               0-1.250000000E+000.0000000000E+00+
*       -4.000000000E+00               0
GRID*               1978               0-2.000000000E+000.0000000000E+00+
*       -3.750000000E+00               0
GRID*               1979               0-1.750000000E+000.0000000000E+00+
*       -4.000000000E+00               0
GRID*               1980               0-2.500000000E+000.0000000000E+00+
*       -3.750000000E+00               0
GRID*               1981               0-2.250000000E+000.0000000000E+00+
*       -4.000000000E+00               0
GRID*               1982               0-3.000000000E+000.0000000000E+00+
*       -3.750000000E+00               0
GRID*               1983               0-2.750000000E+000.0000000000E+00+
*       -4.000000000E+00               0
GRID*               1984               0-3.500000000E+000.0000000000E+00+
*       -3.750000000E+00               0
GRID*               1985               0-3.250000000E+000.0000000000E+00+
*       -4.000000000E+00               0
GRID*               1986               0-4.000000000E+000.0000000000E+00+
*       -3.750000000E+00               0
GRID*               1987               0-3.750000000E+000.0000000000E+00+
*       -4.000000000E+00               0
GRID*               1988               0-4.500000000E+000.0000000000E+00+
*       -3.750000000E+00               0
GRID*               1989               0-4.250000000E+000.0000000000E+00+
*       -4.000000000E+00               0
GRID*               1990               0-5.000000000E+000.0000000000E+00+
*       -3.750000000E+00               0
GRID*               1991               0-4.750000000E+000.0000000000E+00+
*       -4.000000000E+00               0
GRID*               1992               0-5.500000000E+000.0000000000E+00+
*       -3.750000000E+00               0
GRID*               1993               0-5.250000000E+000.0000000000E+00+
*       -4.000000000E+00               0
GRID*               1994               0-6.000000000E+000.0000000000E+00+
*       -3.750000000E+00               0
GRID*               1995               0-5.750000000E+000.0000000000E+00+
*       -4.000000000E+00               0
GRID*               1996               0-6.500000000E+000.0000000000E+00+
*       -3.750000000E+00               0
GRID*               1997               0-6.250000000E+000.0000000000E+00+
*       -4.000000000E+00               0
GRID*               1998               0-7.000000000E+000.0000000000E+00+
*       -3.750000000E+00               0
GRID*               1999               0-6.750000000E+000.0000000000E+00+
*       -4.000000000E+00               0
GRID*               2000               0-7.500000000E+000.0000000000E+00+
*       -3.750000000E+00               0
GRID*               2001               0-7.250000000E+000.0000000000E+00+
*       -4.000000000E+00               0
GRID*               2002               0-8.000000000E+000.0000000000E+00+
*       -3.750000000E+00               0
GRID*               2003               0-7.750000000E+000.0000000000E+00+
*       -4.000000000E+00               0
GRID*               2004               0-8.500000000E+000.0000000000E+00+
*       -3.750000000E+00               0
GRID*               2005               0-8.250000000E+000.0000000000E+00+
*       -4.000000000E+00               0
GRID*               2006               0-9.000000000E+000.0000000000E+00+
*       -3.750000000E+00               0
GRID*               2007               0-8.750000000E+000.0000000000E+00+
*       -4.000000000E+00               0
GRID*               2008               0-9.500000000E+000.0000000000E+00+
*       -3.750000000E+00               0
GRID*               2009               0-9.250000000E+000.0000000000E+00+
*       -4.000000000E+00               0
GRID*               2010               0-1.000000000E+010.0000000000E+00+
*       -3.750000000E+00               0
GRID*               2011               0-9.750000000E+000.0000000000E+00+
*       -4.000000000E+00               0
GRID*               2012               0-1.050000000E+010.0000000000E+00+
*       -3.750000000E+00               0
GRID*               2013               0-1.025000000E+010.0000000000E+00+
*       -4.000000000E+00               0
GRID*               2014               0-1.100000000E+010.0000000000E+00+
*       -3.750000000E+00               0
GRID*               2015               0-1.075000000E+010.0000000000E+00+
*       -4.000000000E+00               0
GRID*               2016               0-1.150000000E+010.0000000000E+00+
*       -3.750000000E+00               0
GRID*               2017               0-1.125000000E+010.0000000000E+00+
*       -4.000000000E+00               0
GRID*               2018               0-1.200000000E+010.0000000000E+00+
*       -3.750000000E+00               0
GRID*               2019               0-1.175000000E+010.0000000000E+00+
*       -4.000000000E+00               0
GRID*               2020               0-1.250000000E+010.0000000000E+00+
*       -3.750000000E+00               0
GRID*               2021               0-1.225000000E+010.0000000000E+00+
*       -4.000000000E+00               0
GRID*               2022               0-1.300000000E+010.0000000000E+00+
*       -3.750000000E+00               0
GRID*               2023               0-1.275000000E+010.0000000000E+00+
*       -4.000000000E+00               0
GRID*               2024               0-1.350000000E+010.0000000000E+00+
*       -3.750000000E+00               0
GRID*               2025               0-1.325000000E+010.0000000000E+00+
*       -4.000000000E+00               0
GRID*               2026               0-1.400000000E+010.0000000000E+00+
*       -3.750000000E+00               0
GRID*               2027               0-1.375000000E+010.0000000000E+00+
*       -4.000000000E+00               0
GRID*               2028               0-1.450000000E+010.0000000000E+00+
*       -3.750000000E+00               0
GRID*               2029               0-1.425000000E+010.0000000000E+00+
*       -4.000000000E+00               0
GRID*               2030               0-1.500000000E+010.0000000000E+00+
*       -3.750000000E+00               0
GRID*               2031               0-1.475000000E+010.0000000000E+00+
*       -4.000000000E+00               0
GRID*               2032               0-1.550000000E+010.0000000000E+00+
*       -3.750000000E+00               0
GRID*               2033               0-1.525000000E+010.0000000000E+00+
*       -4.000000000E+00               0
GRID*               2034               0-1.600000000E+010.0000000000E+00+
*       -3.750000000E+00               0
GRID*               2035               0-1.575000000E+010.0000000000E+00+
*       -4.000000000E+00               0
GRID*               2036               0-1.650000000E+010.0000000000E+00+
*       -3.750000000E+00               0
GRID*               2037               0-1.625000000E+010.0000000000E+00+
*       -4.000000000E+00               0
GRID*               2038               0-1.700000000E+010.0000000000E+00+
*       -3.750000000E+00               0
GRID*               2039               0-1.675000000E+010.0000000000E+00+
*       -4.000000000E+00               0
GRID*               2040               0-1.750000000E+010.0000000000E+00+
*       -3.750000000E+00               0
GRID*               2041               0-1.725000000E+010.0000000000E+00+
*       -4.000000000E+00               0
GRID*               2042               0-1.800000000E+010.0000000000E+00+
*       -3.750000000E+00               0
GRID*               2043               0-1.775000000E+010.0000000000E+00+
*       -4.000000000E+00               0
GRID*               2044               0-1.850000000E+010.0000000000E+00+
*       -3.750000000E+00               0
GRID*               2045               0-1.825000000E+010.0000000000E+00+
*       -4.000000000E+00               0
GRID*               2046               0-1.900000000E+010.0000000000E+00+
*       -3.750000000E+00               0
GRID*               2047               0-1.875000000E+010.0000000000E+00+
*       -4.000000000E+00               0
GRID*               2048               0-1.950000000E+010.0000000000E+00+
*       -3.750000000E+00               0
GRID*               2049               0-1.925000000E+010.0000000000E+00+
*       -4.000000000E+00               0
GRID*               2050               0-2.000000000E+010.0000000000E+00+
*       -3.750000000E+00               0
GRID*               2051               0-1.975000000E+010.0000000000E+00+
*       -4.000000000E+00               0
GRID*               2052               0-2.050000000E+010.0000000000E+00+
*       -3.750000000E+00               0
GRID*               2053               0-2.025000000E+010.0000000000E+00+
*       -4.000000000E+00               0
GRID*               2054               0-2.100000000E+010.0000000000E+00+
*       -3.750000000E+00               0
GRID*               2055               0-2.075000000E+010.0000000000E+00+
*       -4.000000000E+00               0
GRID*               2056               0-2.150000000E+010.0000000000E+00+
*       -3.750000000E+00               0
GRID*               2057               0-2.125000000E+010.0000000000E+00+
*       -4.000000000E+00               0
GRID*               2058               0-2.200000000E+010.0000000000E+00+
*       -3.749921779E+00               0
GRID*               2059               0-2.175000000E+010.0000000000E+00+
*       -3.999921779E+00               0
GRID*               2060               0-2.249107667E+010.0000000000E+00+
*       -3.749843556E+00               0
GRID*               2061               0-2.224107667E+010.0000000000E+00+
*       -3.999765335E+00               0
GRID*               2062               0-2.303373795E+010.0000000000E+00+
*       -3.712229053E+00               0
GRID*               2063               0-2.277576370E+010.0000000000E+00+
*       -3.979885368E+00               0
GRID*               2064               0-2.355658860E+010.0000000000E+00+
*       -3.598410406E+00               0
GRID*               2065               0-2.334824368E+010.0000000000E+00+
*       -3.899339520E+00               0
GRID*               2066               0-2.405794105E+010.0000000000E+00+
*       -3.411414953E+00               0
GRID*               2067               0-2.389452156E+010.0000000000E+00+
*       -3.738856941E+00               0
GRID*               2068               0-2.452757849E+010.0000000000E+00+
*       -3.154973897E+00               0
GRID*               2069               0-2.441242207E+010.0000000000E+00+
*       -3.502339558E+00               0
GRID*               2070               0-2.495594030E+010.0000000000E+00+
*       -2.834306134E+00               0
GRID*               2071               0-2.489139130E+010.0000000000E+00+
*       -3.194524849E+00               0
GRID*               2072               0-2.533430609E+010.0000000000E+00+
*       -2.455940187E+00               0
GRID*               2073               0-2.532167868E+010.0000000000E+00+
*       -2.821678577E+00               0
GRID*               2074               0-2.565497353E+010.0000000000E+00+
*       -2.027578512E+00               0
GRID*               2075               0-2.569452462E+010.0000000000E+00+
*       -2.391391284E+00               0
GRID*               2076               0-2.591141534E+010.0000000000E+00+
*       -1.557941518E+00               0
GRID*               2077               0-2.600233949E+010.0000000000E+00+
*       -1.912422464E+00               0
GRID*               2078               0-2.609841088E+010.0000000000E+00+
*       -1.056588504E+00               0
GRID*               2079               0-2.623885741E+010.0000000000E+00+
*       -1.394521670E+00               0
GRID*               2080               0-2.621215056E+010.0000000000E+00+
*       -5.337266139E-01               0
GRID*               2081               0-2.639926175E+010.0000000000E+00+
*       -8.482321697E-01               0
GRID*               2082               0-2.625032497E+010.0000000000E+00+
*       -1.024598960E-15               0
GRID*               2083               0-2.648028871E+010.0000000000E+00+
*       -2.846757322E-01               0
GRID*               2084               0-2.621215056E+010.0000000000E+00+
*       5.3372661391E-01               0
GRID*               2085               0-2.648028871E+010.0000000000E+00+
*       2.8467573223E-01               0
GRID*               2086               0-2.609841088E+010.0000000000E+00+
*       1.0565885037E+00               0
GRID*               2087               0-2.639926175E+010.0000000000E+00+
*       8.4823216971E-01               0
GRID*               2088               0-2.591141534E+010.0000000000E+00+
*       1.5579415176E+00               0
GRID*               2089               0-2.623885741E+010.0000000000E+00+
*       1.3945216704E+00               0
GRID*               2090               0-2.565497353E+010.0000000000E+00+
*       2.0275785124E+00               0
GRID*               2091               0-2.600233949E+010.0000000000E+00+
*       1.9124224635E+00               0
GRID*               2092               0-2.533430609E+010.0000000000E+00+
*       2.4559401866E+00               0
GRID*               2093               0-2.569452462E+010.0000000000E+00+
*       2.3913912841E+00               0
GRID*               2094               0-2.495594030E+010.0000000000E+00+
*       2.8343061340E+00               0
GRID*               2095               0-2.532167868E+010.0000000000E+00+
*       2.8216785767E+00               0
GRID*               2096               0-2.452757849E+010.0000000000E+00+
*       3.1549738971E+00               0
GRID*               2097               0-2.489139130E+010.0000000000E+00+
*       3.1945248490E+00               0
GRID*               2098               0-2.405794105E+010.0000000000E+00+
*       3.4114149532E+00               0
GRID*               2099               0-2.441242207E+010.0000000000E+00+
*       3.5023395581E+00               0
GRID*               2100               0-2.355658860E+010.0000000000E+00+
*       3.5984104056E+00               0
GRID*               2101               0-2.389452156E+010.0000000000E+00+
*       3.7388569406E+00               0
GRID*               2102               0-2.303373795E+010.0000000000E+00+
*       3.7122290527E+00               0
GRID*               2103               0-2.334824368E+010.0000000000E+00+
*       3.8993395198E+00               0
GRID*               2104               0-2.281141154E+010.0000000000E+00+
*       3.9786121816E+00               0
GRID*               2105               03.2500000008E+010.0000000000E+00+
*       -4.220686144E+00               0
GRID*               2106               03.2035689736E+010.0000000000E+00+
*       -4.195069010E+00               0
GRID*               2107               03.2255706162E+010.0000000000E+00+
*       -4.427893997E+00               0
GRID*               2108               03.1577015917E+010.0000000000E+00+
*       -4.118529717E+00               0
GRID*               2109               03.1770084194E+010.0000000000E+00+
*       -4.374145079E+00               0
GRID*               2110               03.1129545670E+010.0000000000E+00+
*       -3.991997565E+00               0
GRID*               2111               03.1293322615E+010.0000000000E+00+
*       -4.267300408E+00               0
GRID*               2112               03.0698710533E+010.0000000000E+00+
*       -3.817007784E+00               0
GRID*               2113               03.0831207990E+010.0000000000E+00+
*       -4.108656608E+00               0
GRID*               2114               03.0289741087E+010.0000000000E+00+
*       -3.595683936E+00               0
GRID*               2115               03.0389350200E+010.0000000000E+00+
*       -3.900138739E+00               0
GRID*               2116               02.9907601526E+010.0000000000E+00+
*       -3.330713941E+00               0
GRID*               2117               02.9973113509E+010.0000000000E+00+
*       -3.644278517E+00               0
GRID*               2118               02.9556928884E+010.0000000000E+00+
*       -3.025314218E+00               0
GRID*               2119               02.9587549295E+010.0000000000E+00+
*       -3.344182306E+00               0
GRID*               2120               02.9241982483E+010.0000000000E+00+
*       -2.683189796E+00               0
GRID*               2121               02.9237338092E+010.0000000000E+00+
*       -3.003491613E+00               0
GRID*               2122               02.8966583593E+010.0000000000E+00+
*       -2.308496053E+00               0
GRID*               2123               02.8926731789E+010.0000000000E+00+
*       -2.626342454E+00               0
GRID*               2124               02.8734075676E+010.0000000000E+00+
*       -1.905780190E+00               0
GRID*               2125               02.8659500050E+010.0000000000E+00+
*       -2.217313632E+00               0
GRID*               2126               02.8547280455E+010.0000000000E+00+
*       -1.479930867E+00               0
GRID*               2127               02.8438886502E+010.0000000000E+00+
*       -1.781369583E+00               0
GRID*               2128               02.8408466254E+010.0000000000E+00+
*       -1.036117100E+00               0
GRID*               2129               02.8267569278E+010.0000000000E+00+
*       -1.323802155E+00               0
GRID*               2130               02.8319316883E+010.0000000000E+00+
*       -5.797262353E-01               0
GRID*               2131               02.8147627749E+010.0000000000E+00+
*       -8.501654091E-01               0
GRID*               2132               02.8280916804E+010.0000000000E+00+
*       -1.162982263E-01               0
GRID*               2133               02.8080518436E+010.0000000000E+00+
*       -3.662087213E-01               0
GRID*               2134               02.8293729113E+010.0000000000E+00+
*       3.4854139072E-01               0
GRID*               2135               02.8067055597E+010.0000000000E+00+
*       1.2219309353E-01               0
GRID*               2136               02.8357600983E+010.0000000000E+00+
*       8.0915081948E-01               0
GRID*               2137               02.8107402506E+010.0000000000E+00+
*       6.0911221648E-01               0
GRID*               2138               02.8471757228E+010.0000000000E+00+
*       1.2599372604E+00               0
GRID*               2139               02.8201070852E+010.0000000000E+00+
*       1.0886373717E+00               0
GRID*               2140               02.8634808974E+010.0000000000E+00+
*       1.6954296684E+00               0
GRID*               2141               02.8346921892E+010.0000000000E+00+
*       1.5549468191E+00               0
GRID*               2142               02.8844778496E+010.0000000000E+00+
*       2.1103431497E+00               0
GRID*               2143               02.8543184524E+010.0000000000E+00+
*       2.0023821032E+00               0
GRID*               2144               02.9099119222E+010.0000000000E+00+
*       2.4996388052E+00               0
GRID*               2145               02.8787478408E+010.0000000000E+00+
*       2.4255116276E+00               0
GRID*               2146               02.9394740743E+010.0000000000E+00+
*       2.8585925483E+00               0
GRID*               2147               02.9076837380E+010.0000000000E+00+
*       2.8191980829E+00               0
GRID*               2148               02.9728056054E+010.0000000000E+00+
*       3.1828469771E+00               0
GRID*               2149               02.9407748240E+010.0000000000E+00+
*       3.1786634323E+00               0
GRID*               2150               03.0095019105E+010.0000000000E+00+
*       3.4684663540E+00               0
GRID*               2151               02.9776195129E+010.0000000000E+00+
*       3.4995445436E+00               0
GRID*               2152               03.0491175876E+010.0000000000E+00+
*       3.7119823627E+00               0
GRID*               2153               03.0177705699E+010.0000000000E+00+
*       3.7779457144E+00               0
GRID*               2154               03.0911716457E+010.0000000000E+00+
*       3.9104402135E+00               0
GRID*               2155               03.0607405570E+010.0000000000E+00+
*       4.0104873280E+00               0
GRID*               2156               03.1351536708E+010.0000000000E+00+
*       4.0614310830E+00               0
GRID*               2157               03.1060078637E+010.0000000000E+00+
*       4.1943474164E+00               0
GRID*               2158               03.1805298100E+010.0000000000E+00+
*       4.1631214564E+00               0
GRID*               2159               03.1530230807E+010.0000000000E+00+
*       4.3272940026E+00               0
GRID*               2160               03.2267492100E+010.0000000000E+00+
*       4.2142765343E+00               0
GRID*               2161               03.2012154795E+010.0000000000E+00+
*       4.4077126510E+00               0
GRID*               2162               03.2732508126E+010.0000000000E+00+
*       4.2142765341E+00               0
GRID*               2163               03.2500000133E+010.0000000000E+00+
*       4.4346275583E+00               0
GRID*               2164               03.3194702092E+010.0000000000E+00+
*       4.1631212868E+00               0
GRID*               2165               03.2987845447E+010.0000000000E+00+
*       4.4077125618E+00               0
GRID*               2166               03.3648463464E+010.0000000000E+00+
*       4.0614309811E+00               0
GRID*               2167               03.3469769384E+010.0000000000E+00+
*       4.3272938643E+00               0
GRID*               2168               03.4088283708E+010.0000000000E+00+
*       3.9104400731E+00               0
GRID*               2169               03.3939921531E+010.0000000000E+00+
*       4.1943472954E+00               0
GRID*               2170               03.4508824365E+010.0000000000E+00+
*       3.7119822070E+00               0
GRID*               2171               03.4392594667E+010.0000000000E+00+
*       4.0104871636E+00               0
GRID*               2172               03.4904981035E+010.0000000000E+00+
*       3.4684658995E+00               0
GRID*               2173               03.4822294585E+010.0000000000E+00+
*       3.7779453545E+00               0
GRID*               2174               03.5271943712E+010.0000000000E+00+
*       3.1828464154E+00               0
GRID*               2175               03.5223804851E+010.0000000000E+00+
*       3.4995440158E+00               0
GRID*               2176               03.5605259409E+010.0000000000E+00+
*       2.8585925010E+00               0
GRID*               2177               03.5592251618E+010.0000000000E+00+
*       3.1786632237E+00               0
GRID*               2178               03.5900881407E+010.0000000000E+00+
*       2.4996385049E+00               0
GRID*               2179               03.5923163052E+010.0000000000E+00+
*       2.8191978513E+00               0
GRID*               2180               03.6155220420E+010.0000000000E+00+
*       2.1103424497E+00               0
GRID*               2181               03.6212521384E+010.0000000000E+00+
*       2.4255110927E+00               0
GRID*               2182               03.6365192258E+010.0000000000E+00+
*       1.6954304853E+00               0
GRID*               2183               03.6456815377E+010.0000000000E+00+
*       2.0023825015E+00               0
GRID*               2184               03.6528243751E+010.0000000000E+00+
*       1.2599370050E+00               0
GRID*               2185               03.6653079170E+010.0000000000E+00+
*       1.5549472089E+00               0
GRID*               2186               03.6642399435E+010.0000000000E+00+
*       8.0915058546E-01               0
GRID*               2187               03.6798929909E+010.0000000000E+00+
*       1.0886368864E+00               0
GRID*               2188               03.6706270886E+010.0000000000E+00+
*       3.4854120265E-01               0
GRID*               2189               03.6892597721E+010.0000000000E+00+
*       6.0911184864E-01               0
GRID*               2190               03.6719083201E+010.0000000000E+00+
*       -1.162983583E-01               0
GRID*               2191               03.6932944404E+010.0000000000E+00+
*       1.2219286536E-01               0
GRID*               2192               03.6680683005E+010.0000000000E+00+
*       -5.797258382E-01               0
GRID*               2193               03.6919481533E+010.0000000000E+00+
*       -3.662083764E-01               0
GRID*               2194               03.6591535592E+010.0000000000E+00+
*       -1.036117660E+00               0
GRID*               2195               03.6852373154E+010.0000000000E+00+
*       -8.501652900E-01               0
GRID*               2196               03.6452719110E+010.0000000000E+00+
*       -1.479930920E+00               0
GRID*               2197               03.6732431381E+010.0000000000E+00+
*       -1.323802607E+00               0
GRID*               2198               03.6265925151E+010.0000000000E+00+
*       -1.905780472E+00               0
GRID*               2199               03.6561113632E+010.0000000000E+00+
*       -1.781369898E+00               0
GRID*               2200               03.6033415918E+010.0000000000E+00+
*       -2.308495619E+00               0
GRID*               2201               03.6340500108E+010.0000000000E+00+
*       -2.217313573E+00               0
GRID*               2202               03.5758018280E+010.0000000000E+00+
*       -2.683190307E+00               0
GRID*               2203               03.6073268346E+010.0000000000E+00+
*       -2.626342503E+00               0
GRID*               2204               03.5443070439E+010.0000000000E+00+
*       -3.025313802E+00               0
GRID*               2205               03.5762661839E+010.0000000000E+00+
*       -3.003491788E+00               0
GRID*               2206               03.5092398397E+010.0000000000E+00+
*       -3.330713460E+00               0
GRID*               2207               03.5412450273E+010.0000000000E+00+
*       -3.344181904E+00               0
GRID*               2208               03.4710258966E+010.0000000000E+00+
*       -3.595683829E+00               0
GRID*               2209               03.5026886577E+010.0000000000E+00+
*       -3.644278154E+00               0
GRID*               2210               03.4301289438E+010.0000000000E+00+
*       -3.817007621E+00               0
GRID*               2211               03.4610649851E+010.0000000000E+00+
*       -3.900138582E+00               0
GRID*               2212               03.3870454359E+010.0000000000E+00+
*       -3.991997560E+00               0
GRID*               2213               03.4168792023E+010.0000000000E+00+
*       -4.108656518E+00               0
GRID*               2214               03.3422984062E+010.0000000000E+00+
*       -4.118529604E+00               0
GRID*               2215               03.3706677391E+010.0000000000E+00+
*       -4.267300348E+00               0
GRID*               2216               03.2964310289E+010.0000000000E+00+
*       -4.195068976E+00               0
GRID*               2217               03.3229915818E+010.0000000000E+00+
*       -4.374145004E+00               0
GRID*               2218               03.2744293880E+010.0000000000E+00+
*       -4.427893980E+00               0
GRID*               2219               0-3.250000001E+010.0000000000E+00+
*       -4.220686144E+00               0
GRID*               2220               0-3.296431029E+010.0000000000E+00+
*       -4.195068976E+00               0
GRID*               2221               0-3.274429388E+010.0000000000E+00+
*       -4.427893980E+00               0
GRID*               2222               0-3.342298406E+010.0000000000E+00+
*       -4.118529604E+00               0
GRID*               2223               0-3.322991582E+010.0000000000E+00+
*       -4.374145004E+00               0
GRID*               2224               0-3.387045436E+010.0000000000E+00+
*       -3.991997560E+00               0
GRID*               2225               0-3.370667739E+010.0000000000E+00+
*       -4.267300348E+00               0
GRID*               2226               0-3.430128944E+010.0000000000E+00+
*       -3.817007621E+00               0
GRID*               2227               0-3.416879202E+010.0000000000E+00+
*       -4.108656518E+00               0
GRID*               2228               0-3.471025897E+010.0000000000E+00+
*       -3.595683829E+00               0
GRID*               2229               0-3.461064985E+010.0000000000E+00+
*       -3.900138582E+00               0
GRID*               2230               0-3.509239840E+010.0000000000E+00+
*       -3.330713460E+00               0
GRID*               2231               0-3.502688658E+010.0000000000E+00+
*       -3.644278154E+00               0
GRID*               2232               0-3.544307044E+010.0000000000E+00+
*       -3.025313802E+00               0
GRID*               2233               0-3.541245027E+010.0000000000E+00+
*       -3.344181904E+00               0
GRID*               2234               0-3.575801828E+010.0000000000E+00+
*       -2.683190307E+00               0
GRID*               2235               0-3.576266184E+010.0000000000E+00+
*       -3.003491788E+00               0
GRID*               2236               0-3.603341592E+010.0000000000E+00+
*       -2.308495619E+00               0
GRID*               2237               0-3.607326835E+010.0000000000E+00+
*       -2.626342503E+00               0
GRID*               2238               0-3.626592515E+010.0000000000E+00+
*       -1.905780472E+00               0
GRID*               2239               0-3.634050011E+010.0000000000E+00+
*       -2.217313573E+00               0
GRID*               2240               0-3.645271911E+010.0000000000E+00+
*       -1.479930920E+00               0
GRID*               2241               0-3.656111363E+010.0000000000E+00+
*       -1.781369898E+00               0
GRID*               2242               0-3.659153559E+010.0000000000E+00+
*       -1.036117660E+00               0
GRID*               2243               0-3.673243138E+010.0000000000E+00+
*       -1.323802607E+00               0
GRID*               2244               0-3.668068300E+010.0000000000E+00+
*       -5.797258382E-01               0
GRID*               2245               0-3.685237315E+010.0000000000E+00+
*       -8.501652900E-01               0
GRID*               2246               0-3.671908320E+010.0000000000E+00+
*       -1.162983583E-01               0
GRID*               2247               0-3.691948153E+010.0000000000E+00+
*       -3.662083764E-01               0
GRID*               2248               0-3.670627089E+010.0000000000E+00+
*       3.4854120265E-01               0
GRID*               2249               0-3.693294440E+010.0000000000E+00+
*       1.2219286536E-01               0
GRID*               2250               0-3.664239943E+010.0000000000E+00+
*       8.0915058546E-01               0
GRID*               2251               0-3.689259772E+010.0000000000E+00+
*       6.0911184864E-01               0
GRID*               2252               0-3.652824375E+010.0000000000E+00+
*       1.2599370050E+00               0
GRID*               2253               0-3.679892991E+010.0000000000E+00+
*       1.0886368864E+00               0
GRID*               2254               0-3.636519226E+010.0000000000E+00+
*       1.6954304853E+00               0
GRID*               2255               0-3.665307917E+010.0000000000E+00+
*       1.5549472089E+00               0
GRID*               2256               0-3.615522042E+010.0000000000E+00+
*       2.1103424497E+00               0
GRID*               2257               0-3.645681538E+010.0000000000E+00+
*       2.0023825015E+00               0
GRID*               2258               0-3.590088141E+010.0000000000E+00+
*       2.4996385049E+00               0
GRID*               2259               0-3.621252138E+010.0000000000E+00+
*       2.4255110927E+00               0
GRID*               2260               0-3.560525941E+010.0000000000E+00+
*       2.8585925010E+00               0
GRID*               2261               0-3.592316305E+010.0000000000E+00+
*       2.8191978513E+00               0
GRID*               2262               0-3.527194371E+010.0000000000E+00+
*       3.1828464154E+00               0
GRID*               2263               0-3.559225162E+010.0000000000E+00+
*       3.1786632237E+00               0
GRID*               2264               0-3.490498104E+010.0000000000E+00+
*       3.4684658995E+00               0
GRID*               2265               0-3.522380485E+010.0000000000E+00+
*       3.4995440158E+00               0
GRID*               2266               0-3.450882436E+010.0000000000E+00+
*       3.7119822070E+00               0
GRID*               2267               0-3.482229459E+010.0000000000E+00+
*       3.7779453545E+00               0
GRID*               2268               0-3.408828371E+010.0000000000E+00+
*       3.9104400731E+00               0
GRID*               2269               0-3.439259467E+010.0000000000E+00+
*       4.0104871636E+00               0
GRID*               2270               0-3.364846346E+010.0000000000E+00+
*       4.0614309811E+00               0
GRID*               2271               0-3.393992153E+010.0000000000E+00+
*       4.1943472954E+00               0
GRID*               2272               0-3.319470209E+010.0000000000E+00+
*       4.1631212868E+00               0
GRID*               2273               0-3.346976938E+010.0000000000E+00+
*       4.3272938643E+00               0
GRID*               2274               0-3.273250813E+010.0000000000E+00+
*       4.2142765341E+00               0
GRID*               2275               0-3.298784545E+010.0000000000E+00+
*       4.4077125618E+00               0
GRID*               2276               0-3.226749210E+010.0000000000E+00+
*       4.2142765343E+00               0
GRID*               2277               0-3.250000013E+010.0000000000E+00+
*       4.4346275583E+00               0
GRID*               2278               0-3.180529810E+010.0000000000E+00+
*       4.1631214564E+00               0
GRID*               2279               0-3.201215479E+010.0000000000E+00+
*       4.4077126510E+00               0
GRID*               2280               0-3.135153671E+010.0000000000E+00+
*       4.0614310830E+00               0
GRID*               2281               0-3.153023081E+010.0000000000E+00+
*       4.3272940026E+00               0
GRID*               2282               0-3.091171646E+010.0000000000E+00+
*       3.9104402135E+00               0
GRID*               2283               0-3.106007864E+010.0000000000E+00+
*       4.1943474164E+00               0
GRID*               2284               0-3.049117588E+010.0000000000E+00+
*       3.7119823627E+00               0
GRID*               2285               0-3.060740557E+010.0000000000E+00+
*       4.0104873280E+00               0
GRID*               2286               0-3.009501910E+010.0000000000E+00+
*       3.4684663540E+00               0
GRID*               2287               0-3.017770570E+010.0000000000E+00+
*       3.7779457144E+00               0
GRID*               2288               0-2.972805605E+010.0000000000E+00+
*       3.1828469771E+00               0
GRID*               2289               0-2.977619513E+010.0000000000E+00+
*       3.4995445436E+00               0
GRID*               2290               0-2.939474074E+010.0000000000E+00+
*       2.8585925483E+00               0
GRID*               2291               0-2.940774824E+010.0000000000E+00+
*       3.1786634323E+00               0
GRID*               2292               0-2.909911922E+010.0000000000E+00+
*       2.4996388052E+00               0
GRID*               2293               0-2.907683738E+010.0000000000E+00+
*       2.8191980829E+00               0
GRID*               2294               0-2.884477850E+010.0000000000E+00+
*       2.1103431497E+00               0
GRID*               2295               0-2.878747841E+010.0000000000E+00+
*       2.4255116276E+00               0
GRID*               2296               0-2.863480897E+010.0000000000E+00+
*       1.6954296684E+00               0
GRID*               2297               0-2.854318452E+010.0000000000E+00+
*       2.0023821032E+00               0
GRID*               2298               0-2.847175723E+010.0000000000E+00+
*       1.2599372604E+00               0
GRID*               2299               0-2.834692189E+010.0000000000E+00+
*       1.5549468191E+00               0
GRID*               2300               0-2.835760098E+010.0000000000E+00+
*       8.0915081948E-01               0
GRID*               2301               0-2.820107085E+010.0000000000E+00+
*       1.0886373717E+00               0
GRID*               2302               0-2.829372911E+010.0000000000E+00+
*       3.4854139072E-01               0
GRID*               2303               0-2.810740251E+010.0000000000E+00+
*       6.0911221648E-01               0
GRID*               2304               0-2.828091680E+010.0000000000E+00+
*       -1.162982263E-01               0
GRID*               2305               0-2.806705560E+010.0000000000E+00+
*       1.2219309353E-01               0
GRID*               2306               0-2.831931688E+010.0000000000E+00+
*       -5.797262353E-01               0
GRID*               2307               0-2.808051844E+010.0000000000E+00+
*       -3.662087213E-01               0
GRID*               2308               0-2.840846625E+010.0000000000E+00+
*       -1.036117100E+00               0
GRID*               2309               0-2.814762775E+010.0000000000E+00+
*       -8.501654091E-01               0
GRID*               2310               0-2.854728046E+010.0000000000E+00+
*       -1.479930867E+00               0
GRID*               2311               0-2.826756928E+010.0000000000E+00+
*       -1.323802155E+00               0
GRID*               2312               0-2.873407568E+010.0000000000E+00+
*       -1.905780190E+00               0
GRID*               2313               0-2.843888650E+010.0000000000E+00+
*       -1.781369583E+00               0
GRID*               2314               0-2.896658359E+010.0000000000E+00+
*       -2.308496053E+00               0
GRID*               2315               0-2.865950005E+010.0000000000E+00+
*       -2.217313632E+00               0
GRID*               2316               0-2.924198248E+010.0000000000E+00+
*       -2.683189796E+00               0
GRID*               2317               0-2.892673179E+010.0000000000E+00+
*       -2.626342454E+00               0
GRID*               2318               0-2.955692888E+010.0000000000E+00+
*       -3.025314218E+00               0
GRID*               2319               0-2.923733809E+010.0000000000E+00+
*       -3.003491613E+00               0
GRID*               2320               0-2.990760153E+010.0000000000E+00+
*       -3.330713941E+00               0
GRID*               2321               0-2.958754929E+010.0000000000E+00+
*       -3.344182306E+00               0
GRID*               2322               0-3.028974109E+010.0000000000E+00+
*       -3.595683936E+00               0
GRID*               2323               0-2.997311351E+010.0000000000E+00+
*       -3.644278517E+00               0
GRID*               2324               0-3.069871053E+010.0000000000E+00+
*       -3.817007784E+00               0
GRID*               2325               0-3.038935020E+010.0000000000E+00+
*       -3.900138739E+00               0
GRID*               2326               0-3.112954567E+010.0000000000E+00+
*       -3.991997565E+00               0
GRID*               2327               0-3.083120799E+010.0000000000E+00+
*       -4.108656608E+00               0
GRID*               2328               0-3.157701592E+010.0000000000E+00+
*       -4.118529717E+00               0
GRID*               2329               0-3.129332261E+010.0000000000E+00+
*       -4.267300408E+00               0
GRID*               2330               0-3.203568974E+010.0000000000E+00+
*       -4.195069010E+00               0
GRID*               2331               0-3.177008419E+010.0000000000E+00+
*       -4.374145079E+00               0
GRID*               2332               0-3.225570616E+010.0000000000E+00+
*       -4.427893997E+00               0
GRID*               2333               03.2527558459E+010.0000000000E+00+
*       5.8513330530E+00               0
GRID*               2334               03.2026233552E+010.0000000000E+00+
*       5.8507365134E+00               0
GRID*               2335               03.2303792011E+010.0000000000E+00+
*       5.7020695664E+00               0
GRID*               2336               03.1523103684E+010.0000000000E+00+
*       5.8426738357E+00               0
GRID*               2337               03.1799337236E+010.0000000000E+00+
*       5.6934103490E+00               0
GRID*               2338               03.1019709930E+010.0000000000E+00+
*       5.8289616121E+00               0
GRID*               2339               03.1292813614E+010.0000000000E+00+
*       5.6716354478E+00               0
GRID*               2340               03.0514906066E+010.0000000000E+00+
*       5.8102848719E+00               0
GRID*               2341               03.0784615996E+010.0000000000E+00+
*       5.6392464841E+00               0
GRID*               2342               03.0005944185E+010.0000000000E+00+
*       5.7885653099E+00               0
GRID*               2343               03.0270850251E+010.0000000000E+00+
*       5.5988501818E+00               0
GRID*               2344               02.9490318463E+010.0000000000E+00+
*       5.7699466661E+00               0
GRID*               2345               02.9746262648E+010.0000000000E+00+
*       5.5585119760E+00               0
GRID*               2346               02.8976805136E+010.0000000000E+00+
*       5.7679157224E+00               0
GRID*               2347               02.9217123600E+010.0000000000E+00+
*       5.5378623884E+00               0
GRID*               2348               02.8473692194E+010.0000000000E+00+
*       5.7739940253E+00               0
GRID*               2349               02.8700497330E+010.0000000000E+00+
*       5.5419097476E+00               0
GRID*               2350               02.7979106223E+010.0000000000E+00+
*       5.7797346680E+00               0
GRID*               2351               02.8202798416E+010.0000000000E+00+
*       5.5537286933E+00               0
GRID*               2352               02.7489808281E+010.0000000000E+00+
*       5.7862158698E+00               0
GRID*               2353               02.7718914504E+010.0000000000E+00+
*       5.5659505378E+00               0
GRID*               2354               02.7006301523E+010.0000000000E+00+
*       5.7900363088E+00               0
GRID*               2355               02.7246109804E+010.0000000000E+00+
*       5.5762521786E+00               0
GRID*               2356               02.6524289957E+010.0000000000E+00+
*       5.7829140740E+00               0
GRID*               2357               02.6780591480E+010.0000000000E+00+
*       5.5729503828E+00               0
GRID*               2358               02.6026342358E+010.0000000000E+00+
*       5.7601745437E+00               0
GRID*               2359               02.6300632315E+010.0000000000E+00+
*       5.5430886177E+00               0
GRID*               2360               02.5513245297E+010.0000000000E+00+
*       5.7688985820E+00               0
GRID*               2361               02.5789587655E+010.0000000000E+00+
*       5.5290731257E+00               0
GRID*               2362               02.5011005109E+010.0000000000E+00+
*       5.7782375009E+00               0
GRID*               2363               02.5274250406E+010.0000000000E+00+
*       5.5471360829E+00               0
GRID*               2364               02.4516754726E+010.0000000000E+00+
*       5.7831786889E+00               0
GRID*               2365               02.4777759835E+010.0000000000E+00+
*       5.5614161898E+00               0
GRID*               2366               02.4023283940E+010.0000000000E+00+
*       5.7770954952E+00               0
GRID*               2367               02.4290038666E+010.0000000000E+00+
*       5.5602741841E+00               0
GRID*               2368               02.3510727767E+010.0000000000E+00+
*       5.7575655298E+00               0
GRID*               2369               02.3784011707E+010.0000000000E+00+
*       5.5346610250E+00               0
GRID*               2370               02.2995771676E+010.0000000000E+00+
*       5.7783208033E+00               0
GRID*               2371               02.3256499444E+010.0000000000E+00+
*       5.5358863331E+00               0
GRID*               2372               02.2495179761E+010.0000000000E+00+
*       5.7889606695E+00               0
GRID*               2373               02.2740951437E+010.0000000000E+00+
*       5.5672814728E+00               0
GRID*               2374               02.1997101520E+010.0000000000E+00+
*       5.7932580068E+00               0
GRID*               2375               02.2242281280E+010.0000000000E+00+
*       5.5822186762E+00               0
GRID*               2376               02.1498544059E+010.0000000000E+00+
*       5.7948242250E+00               0
GRID*               2377               02.1745645579E+010.0000000000E+00+
*       5.5880822318E+00               0
GRID*               2378               02.0999325511E+010.0000000000E+00+
*       5.7953408569E+00               0
GRID*               2379               02.1247869570E+010.0000000000E+00+
*       5.5901650819E+00               0
GRID*               2380               02.0499700745E+010.0000000000E+00+
*       5.7954691563E+00               0
GRID*               2381               02.0749026256E+010.0000000000E+00+
*       5.5908100132E+00               0
GRID*               2382               01.9999869756E+010.0000000000E+00+
*       5.7954546002E+00               0
GRID*               2383               02.0249570501E+010.0000000000E+00+
*       5.5909237565E+00               0
GRID*               2384               01.9499943581E+010.0000000000E+00+
*       5.7954168993E+00               0
GRID*               2385               01.9749813337E+010.0000000000E+00+
*       5.5908714995E+00               0
GRID*               2386               01.8999975600E+010.0000000000E+00+
*       5.7954825785E+00               0
GRID*               2387               01.9249919181E+010.0000000000E+00+
*       5.5908994778E+00               0
GRID*               2388               01.8499989591E+010.0000000000E+00+
*       5.7955545124E+00               0
GRID*               2389               01.8749965191E+010.0000000000E+00+
*       5.5910370909E+00               0
GRID*               2390               01.7999995737E+010.0000000000E+00+
*       5.7955759205E+00               0
GRID*               2391               01.8249985329E+010.0000000000E+00+
*       5.5911304329E+00               0
GRID*               2392               01.7499998432E+010.0000000000E+00+
*       5.7954918205E+00               0
GRID*               2393               01.7749994169E+010.0000000000E+00+
*       5.5910677410E+00               0
GRID*               2394               01.6999999546E+010.0000000000E+00+
*       5.7954960735E+00               0
GRID*               2395               01.7249997978E+010.0000000000E+00+
*       5.5909878940E+00               0
GRID*               2396               01.6499999968E+010.0000000000E+00+
*       5.7955184717E+00               0
GRID*               2397               01.6749999513E+010.0000000000E+00+
*       5.5910145453E+00               0
GRID*               2398               01.6000000097E+010.0000000000E+00+
*       5.7955350014E+00               0
GRID*               2399               01.6250000065E+010.0000000000E+00+
*       5.5910534731E+00               0
GRID*               2400               01.5500000112E+010.0000000000E+00+
*       5.7955439326E+00               0
GRID*               2401               01.5750000209E+010.0000000000E+00+
*       5.5910789340E+00               0
GRID*               2402               01.5000000090E+010.0000000000E+00+
*       5.7955492961E+00               0
GRID*               2403               01.5250000202E+010.0000000000E+00+
*       5.5910932287E+00               0
GRID*               2404               01.4500000062E+010.0000000000E+00+
*       5.7955584863E+00               0
GRID*               2405               01.4750000152E+010.0000000000E+00+
*       5.5911077824E+00               0
GRID*               2406               01.4000000039E+010.0000000000E+00+
*       5.7955789005E+00               0
GRID*               2407               01.4250000101E+010.0000000000E+00+
*       5.5911373867E+00               0
GRID*               2408               01.3500000023E+010.0000000000E+00+
*       5.7956044272E+00               0
GRID*               2409               01.3750000062E+010.0000000000E+00+
*       5.5911833276E+00               0
GRID*               2410               01.3000000013E+010.0000000000E+00+
*       5.7955982407E+00               0
GRID*               2411               01.3250000036E+010.0000000000E+00+
*       5.5912026678E+00               0
GRID*               2412               01.2500000007E+010.0000000000E+00+
*       5.7955006698E+00               0
GRID*               2413               01.2750000020E+010.0000000000E+00+
*       5.5910989104E+00               0
GRID*               2414               01.2000000004E+010.0000000000E+00+
*       5.7954993586E+00               0
GRID*               2415               01.2250000011E+010.0000000000E+00+
*       5.5910000283E+00               0
GRID*               2416               01.1500000002E+010.0000000000E+00+
*       5.7955196443E+00               0
GRID*               2417               01.1750000005E+010.0000000000E+00+
*       5.5910190029E+00               0
GRID*               2418               01.1000000001E+010.0000000000E+00+
*       5.7955354038E+00               0
GRID*               2419               01.1250000003E+010.0000000000E+00+
*       5.5910550482E+00               0
GRID*               2420               01.0500000000E+010.0000000000E+00+
*       5.7955440203E+00               0
GRID*               2421               01.0750000001E+010.0000000000E+00+
*       5.5910794241E+00               0
GRID*               2422               01.0000000000E+010.0000000000E+00+
*       5.7955480143E+00               0
GRID*               2423               01.0250000001E+010.0000000000E+00+
*       5.5910920346E+00               0
GRID*               2424               09.5000000001E+000.0000000000E+00+
*       5.7955496856E+00               0
GRID*               2425               09.7500000003E+000.0000000000E+00+
*       5.5910976999E+00               0
GRID*               2426               09.0000000000E+000.0000000000E+00+
*       5.7955503362E+00               0
GRID*               2427               09.2500000001E+000.0000000000E+00+
*       5.5911000218E+00               0
GRID*               2428               08.5000000000E+000.0000000000E+00+
*       5.7955505761E+00               0
GRID*               2429               08.7500000001E+000.0000000000E+00+
*       5.5911009123E+00               0
GRID*               2430               08.0000000000E+000.0000000000E+00+
*       5.7955506607E+00               0
GRID*               2431               08.2500000000E+000.0000000000E+00+
*       5.5911012368E+00               0
GRID*               2432               07.5000000000E+000.0000000000E+00+
*       5.7955506895E+00               0
GRID*               2433               07.7500000000E+000.0000000000E+00+
*       5.5911013502E+00               0
GRID*               2434               07.0000000000E+000.0000000000E+00+
*       5.7955506991E+00               0
GRID*               2435               07.2500000000E+000.0000000000E+00+
*       5.5911013886E+00               0
GRID*               2436               06.5000000000E+000.0000000000E+00+
*       5.7955507026E+00               0
GRID*               2437               06.7500000000E+000.0000000000E+00+
*       5.5911014016E+00               0
GRID*               2438               06.0000000000E+000.0000000000E+00+
*       5.7955507056E+00               0
GRID*               2439               06.2500000000E+000.0000000000E+00+
*       5.5911014082E+00               0
GRID*               2440               05.5000000000E+000.0000000000E+00+
*       5.7955507167E+00               0
GRID*               2441               05.7500000000E+000.0000000000E+00+
*       5.5911014223E+00               0
GRID*               2442               05.0000000000E+000.0000000000E+00+
*       5.7955507658E+00               0
GRID*               2443               05.2500000000E+000.0000000000E+00+
*       5.5911014825E+00               0
GRID*               2444               04.5000000000E+000.0000000000E+00+
*       5.7955520425E+00               0
GRID*               2445               04.7500000000E+000.0000000000E+00+
*       5.5911028083E+00               0
GRID*               2446               04.0000000000E+000.0000000000E+00+
*       5.7955595277E+00               0
GRID*               2447               04.2500000000E+000.0000000000E+00+
*       5.5911115702E+00               0
GRID*               2448               03.5000000000E+000.0000000000E+00+
*       5.7955792781E+00               0
GRID*               2449               03.7500000000E+000.0000000000E+00+
*       5.5911388058E+00               0
GRID*               2450               03.0000000000E+000.0000000000E+00+
*       5.7956045594E+00               0
GRID*               2451               03.2500000000E+000.0000000000E+00+
*       5.5911838374E+00               0
GRID*               2452               02.5000000000E+000.0000000000E+00+
*       5.7955982857E+00               0
GRID*               2453               02.7500000000E+000.0000000000E+00+
*       5.5912028450E+00               0
GRID*               2454               02.0000000000E+000.0000000000E+00+
*       5.7955006844E+00               0
GRID*               2455               02.2500000000E+000.0000000000E+00+
*       5.5910989701E+00               0
GRID*               2456               01.5000000000E+000.0000000000E+00+
*       5.7954993632E+00               0
GRID*               2457               01.7500000000E+000.0000000000E+00+
*       5.5910000477E+00               0
GRID*               2458               01.0000000000E+000.0000000000E+00+
*       5.7955196458E+00               0
GRID*               2459               01.2500000000E+000.0000000000E+00+
*       5.5910190091E+00               0
GRID*               2460               05.0000000000E-010.0000000000E+00+
*       5.7955354043E+00               0
GRID*               2461               07.5000000000E-010.0000000000E+00+
*       5.5910550501E+00               0
GRID*               2462               0-1.486654549E-120.0000000000E+00+
*       5.7955440204E+00               0
GRID*               2463               02.5000000000E-010.0000000000E+00+
*       5.5910794247E+00               0
GRID*               2464               0-5.000000000E-010.0000000000E+00+
*       5.7955480144E+00               0
GRID*               2465               0-2.500000000E-010.0000000000E+00+
*       5.5910920348E+00               0
GRID*               2466               0-1.000000000E+000.0000000000E+00+
*       5.7955496856E+00               0
GRID*               2467               0-7.500000000E-010.0000000000E+00+
*       5.5910976999E+00               0
GRID*               2468               0-1.500000000E+000.0000000000E+00+
*       5.7955503362E+00               0
GRID*               2469               0-1.250000000E+000.0000000000E+00+
*       5.5911000218E+00               0
GRID*               2470               0-2.000000000E+000.0000000000E+00+
*       5.7955505761E+00               0
GRID*               2471               0-1.750000000E+000.0000000000E+00+
*       5.5911009123E+00               0
GRID*               2472               0-2.500000000E+000.0000000000E+00+
*       5.7955506607E+00               0
GRID*               2473               0-2.250000000E+000.0000000000E+00+
*       5.5911012368E+00               0
GRID*               2474               0-3.000000000E+000.0000000000E+00+
*       5.7955506895E+00               0
GRID*               2475               0-2.750000000E+000.0000000000E+00+
*       5.5911013502E+00               0
GRID*               2476               0-3.500000000E+000.0000000000E+00+
*       5.7955506990E+00               0
GRID*               2477               0-3.250000000E+000.0000000000E+00+
*       5.5911013885E+00               0
GRID*               2478               0-4.000000000E+000.0000000000E+00+
*       5.7955507020E+00               0
GRID*               2479               0-3.750000000E+000.0000000000E+00+
*       5.5911014010E+00               0
GRID*               2480               0-4.500000000E+000.0000000000E+00+
*       5.7955507030E+00               0
GRID*               2481               0-4.250000000E+000.0000000000E+00+
*       5.5911014050E+00               0
GRID*               2482               0-5.000000000E+000.0000000000E+00+
*       5.7955507032E+00               0
GRID*               2483               0-4.750000000E+000.0000000000E+00+
*       5.5911014062E+00               0
GRID*               2484               0-5.500000000E+000.0000000000E+00+
*       5.7955507033E+00               0
GRID*               2485               0-5.250000001E+000.0000000000E+00+
*       5.5911014065E+00               0
GRID*               2486               0-6.000000001E+000.0000000000E+00+
*       5.7955507033E+00               0
GRID*               2487               0-5.750000001E+000.0000000000E+00+
*       5.5911014065E+00               0
GRID*               2488               0-6.500000001E+000.0000000000E+00+
*       5.7955507032E+00               0
GRID*               2489               0-6.250000002E+000.0000000000E+00+
*       5.5911014064E+00               0
GRID*               2490               0-7.000000002E+000.0000000000E+00+
*       5.7955507030E+00               0
GRID*               2491               0-6.750000003E+000.0000000000E+00+
*       5.5911014062E+00               0
GRID*               2492               0-7.500000003E+000.0000000000E+00+
*       5.7955507028E+00               0
GRID*               2493               0-7.250000004E+000.0000000000E+00+
*       5.5911014058E+00               0
GRID*               2494               0-8.000000004E+000.0000000000E+00+
*       5.7955507024E+00               0
GRID*               2495               0-7.750000006E+000.0000000000E+00+
*       5.5911014051E+00               0
GRID*               2496               0-8.500000006E+000.0000000000E+00+
*       5.7955507017E+00               0
GRID*               2497               0-8.250000010E+000.0000000000E+00+
*       5.5911014041E+00               0
GRID*               2498               0-9.000000010E+000.0000000000E+00+
*       5.7955507007E+00               0
GRID*               2499               0-8.750000016E+000.0000000000E+00+
*       5.5911014024E+00               0
GRID*               2500               0-9.500000015E+000.0000000000E+00+
*       5.7955506990E+00               0
GRID*               2501               0-9.250000025E+000.0000000000E+00+
*       5.5911013997E+00               0
GRID*               2502               0-1.000000002E+010.0000000000E+00+
*       5.7955506964E+00               0
GRID*               2503               0-9.750000040E+000.0000000000E+00+
*       5.5911013955E+00               0
GRID*               2504               0-1.050000004E+010.0000000000E+00+
*       5.7955506923E+00               0
GRID*               2505               0-1.025000006E+010.0000000000E+00+
*       5.5911013888E+00               0
GRID*               2506               0-1.100000006E+010.0000000000E+00+
*       5.7955506859E+00               0
GRID*               2507               0-1.075000010E+010.0000000000E+00+
*       5.5911013782E+00               0
GRID*               2508               0-1.150000009E+010.0000000000E+00+
*       5.7955506757E+00               0
GRID*               2509               0-1.125000015E+010.0000000000E+00+
*       5.5911013616E+00               0
GRID*               2510               0-1.200000014E+010.0000000000E+00+
*       5.7955506600E+00               0
GRID*               2511               0-1.175000023E+010.0000000000E+00+
*       5.5911013357E+00               0
GRID*               2512               0-1.250000021E+010.0000000000E+00+
*       5.7955506362E+00               0
GRID*               2513               0-1.225000035E+010.0000000000E+00+
*       5.5911012962E+00               0
GRID*               2514               0-1.300000032E+010.0000000000E+00+
*       5.7955506013E+00               0
GRID*               2515               0-1.275000053E+010.0000000000E+00+
*       5.5911012376E+00               0
GRID*               2516               0-1.350000047E+010.0000000000E+00+
*       5.7955505523E+00               0
GRID*               2517               0-1.325000079E+010.0000000000E+00+
*       5.5911011536E+00               0
GRID*               2518               0-1.400000072E+010.0000000000E+00+
*       5.7955504861E+00               0
GRID*               2519               0-1.375000119E+010.0000000000E+00+
*       5.5911010384E+00               0
GRID*               2520               0-1.450000115E+010.0000000000E+00+
*       5.7955503990E+00               0
GRID*               2521               0-1.425000187E+010.0000000000E+00+
*       5.5911008851E+00               0
GRID*               2522               0-1.500000197E+010.0000000000E+00+
*       5.7955502823E+00               0
GRID*               2523               0-1.475000311E+010.0000000000E+00+
*       5.5911006813E+00               0
GRID*               2524               0-1.550000367E+010.0000000000E+00+
*       5.7955501170E+00               0
GRID*               2525               0-1.525000564E+010.0000000000E+00+
*       5.5911003993E+00               0
GRID*               2526               0-1.600000734E+010.0000000000E+00+
*       5.7955498734E+00               0
GRID*               2527               0-1.575001101E+010.0000000000E+00+
*       5.5910999905E+00               0
GRID*               2528               0-1.650001522E+010.0000000000E+00+
*       5.7955506254E+00               0
GRID*               2529               0-1.625002256E+010.0000000000E+00+
*       5.5911004989E+00               0
GRID*               2530               0-1.700003193E+010.0000000000E+00+
*       5.7955573019E+00               0
GRID*               2531               0-1.675004715E+010.0000000000E+00+
*       5.5911079273E+00               0
GRID*               2532               0-1.750006713E+010.0000000000E+00+
*       5.7955770367E+00               0
GRID*               2533               0-1.725009906E+010.0000000000E+00+
*       5.5911343385E+00               0
GRID*               2534               0-1.800014110E+010.0000000000E+00+
*       5.7956070291E+00               0
GRID*               2535               0-1.775020823E+010.0000000000E+00+
*       5.5911840658E+00               0
GRID*               2536               0-1.850029585E+010.0000000000E+00+
*       5.7956139871E+00               0
GRID*               2537               0-1.825043694E+010.0000000000E+00+
*       5.5912210162E+00               0
GRID*               2538               0-1.900061503E+010.0000000000E+00+
*       5.7955299194E+00               0
GRID*               2539               0-1.875091088E+010.0000000000E+00+
*       5.5911439066E+00               0
GRID*               2540               0-1.950124919E+010.0000000000E+00+
*       5.7955059137E+00               0
GRID*               2541               0-1.925186423E+010.0000000000E+00+
*       5.5910358331E+00               0
GRID*               2542               0-2.000248902E+010.0000000000E+00+
*       5.7954081592E+00               0
GRID*               2543               0-1.975373822E+010.0000000000E+00+
*       5.5909140729E+00               0
GRID*               2544               0-2.050500070E+010.0000000000E+00+
*       5.7954155518E+00               0
GRID*               2545               0-2.025748972E+010.0000000000E+00+
*       5.5908237110E+00               0
GRID*               2546               0-2.101034917E+010.0000000000E+00+
*       5.7955035351E+00               0
GRID*               2547               0-2.076534987E+010.0000000000E+00+
*       5.5909190869E+00               0
GRID*               2548               0-2.152129151E+010.0000000000E+00+
*       5.7959695411E+00               0
GRID*               2549               0-2.128164068E+010.0000000000E+00+
*       5.5914730762E+00               0
GRID*               2550               0-2.204069307E+010.0000000000E+00+
*       5.7985049378E+00               0
GRID*               2551               0-2.181198459E+010.0000000000E+00+
*       5.5944744788E+00               0
GRID*               2552               0-2.255123250E+010.0000000000E+00+
*       5.8129509155E+00               0
GRID*               2553               0-2.234192557E+010.0000000000E+00+
*       5.6114558533E+00               0
GRID*               2554               0-2.303953373E+010.0000000000E+00+
*       5.8291912104E+00               0
GRID*               2555               0-2.284076623E+010.0000000000E+00+
*       5.6421421259E+00               0
GRID*               2556               0-2.351588200E+010.0000000000E+00+
*       5.8352694412E+00               0
GRID*               2557               0-2.330541573E+010.0000000000E+00+
*       5.6644606515E+00               0
GRID*               2558               0-2.399476270E+010.0000000000E+00+
*       5.8310340829E+00               0
GRID*               2559               0-2.376064470E+010.0000000000E+00+
*       5.6663035241E+00               0
GRID*               2560               0-2.448039497E+010.0000000000E+00+
*       5.8187755945E+00               0
GRID*               2561               0-2.422515766E+010.0000000000E+00+
*       5.6498096774E+00               0
GRID*               2562               0-2.497469240E+010.0000000000E+00+
*       5.7968242887E+00               0
GRID*               2563               0-2.470508737E+010.0000000000E+00+
*       5.6155998832E+00               0
GRID*               2564               0-2.548631212E+010.0000000000E+00+
*       5.7632584973E+00               0
GRID*               2565               0-2.521100452E+010.0000000000E+00+
*       5.5600827860E+00               0
GRID*               2566               0-2.600756805E+010.0000000000E+00+
*       5.7594233842E+00               0
GRID*               2567               0-2.574388018E+010.0000000000E+00+
*       5.5226818815E+00               0
GRID*               2568               0-2.651622108E+010.0000000000E+00+
*       5.7670558882E+00               0
GRID*               2569               0-2.627378913E+010.0000000000E+00+
*       5.5264792724E+00               0
GRID*               2570               0-2.701201604E+010.0000000000E+00+
*       5.7775834801E+00               0
GRID*               2571               0-2.677823712E+010.0000000000E+00+
*       5.5446393682E+00               0
GRID*               2572               0-2.749745793E+010.0000000000E+00+
*       5.7842883777E+00               0
GRID*               2573               0-2.725947397E+010.0000000000E+00+
*       5.5618718578E+00               0
GRID*               2574               0-2.797928040E+010.0000000000E+00+
*       5.7793481297E+00               0
GRID*               2575               0-2.772673833E+010.0000000000E+00+
*       5.5636365074E+00               0
GRID*               2576               0-2.847448122E+010.0000000000E+00+
*       5.7584402231E+00               0
GRID*               2577               0-2.820376161E+010.0000000000E+00+
*       5.5377883528E+00               0
GRID*               2578               0-2.898216122E+010.0000000000E+00+
*       5.7674715557E+00               0
GRID*               2579               0-2.870664243E+010.0000000000E+00+
*       5.5259117787E+00               0
GRID*               2580               0-2.947938627E+010.0000000000E+00+
*       5.7769210463E+00               0
GRID*               2581               0-2.921154748E+010.0000000000E+00+
*       5.5443926020E+00               0
GRID*               2582               0-2.997277399E+010.0000000000E+00+
*       5.7747526933E+00               0
GRID*               2583               0-2.970216025E+010.0000000000E+00+
*       5.5516737396E+00               0
GRID*               2584               0-3.048462711E+010.0000000000E+00+
*       5.7580238222E+00               0
GRID*               2585               0-3.020740110E+010.0000000000E+00+
*       5.5327765154E+00               0
GRID*               2586               0-3.101042436E+010.0000000000E+00+
*       5.7759419572E+00               0
GRID*               2587               0-3.074505147E+010.0000000000E+00+
*       5.5339657794E+00               0
GRID*               2588               0-3.152036536E+010.0000000000E+00+
*       5.7912576989E+00               0
GRID*               2589               0-3.128078972E+010.0000000000E+00+
*       5.5671996561E+00               0
GRID*               2590               0-3.201573137E+010.0000000000E+00+
*       5.7960066547E+00               0
GRID*               2591               0-3.178609673E+010.0000000000E+00+
*       5.5872643536E+00               0
GRID*               2592               0-3.249101009E+010.0000000000E+00+
*       5.7826449780E+00               0
GRID*               2593               0-3.225674145E+010.0000000000E+00+
*       5.5786516327E+00               0
GRID*               2594               0-3.295559770E+010.0000000000E+00+
*       5.7153208693E+00               0
GRID*               2595               0-3.269886976E+010.0000000000E+00+
*       5.5082124489E+00               0
GRID*               2596               0-3.344127345E+010.0000000000E+00+
*       5.6433291782E+00               0
GRID*               2597               0-3.315534938E+010.0000000000E+00+
*       5.4098128973E+00               0
GRID*               2598               0-3.392328392E+010.0000000000E+00+
*       5.5522412675E+00               0
GRID*               2599               0-3.363431719E+010.0000000000E+00+
*       5.3282860234E+00               0
GRID*               2600               0-3.438202141E+010.0000000000E+00+
*       5.4622169468E+00               0
GRID*               2601               0-3.409475052E+010.0000000000E+00+
*       5.2688059228E+00               0
GRID*               2602               0-3.482373071E+010.0000000000E+00+
*       5.3053540104E+00               0
GRID*               2603               0-3.452656755E+010.0000000000E+00+
*       5.1827995359E+00               0
GRID*               2604               0-3.525837201E+010.0000000000E+00+
*       5.0970580867E+00               0
GRID*               2605               0-3.494917426E+010.0000000000E+00+
*       5.0166709072E+00               0
GRID*               2606               0-3.567050310E+010.0000000000E+00+
*       4.8471072428E+00               0
GRID*               2607               0-3.536018845E+010.0000000000E+00+
*       4.7942446228E+00               0
GRID*               2608               0-3.604343317E+010.0000000000E+00+
*       4.5628654600E+00               0
GRID*               2609               0-3.573045366E+010.0000000000E+00+
*       4.5310517440E+00               0
GRID*               2610               0-3.636915531E+010.0000000000E+00+
*       4.2264596109E+00               0
GRID*               2611               0-3.603810565E+010.0000000000E+00+
*       4.2147317763E+00               0
GRID*               2612               0-3.670759757E+010.0000000000E+00+
*       3.8679358220E+00               0
GRID*               2613               0-3.633773679E+010.0000000000E+00+
*       3.8553792765E+00               0
GRID*               2614               0-3.702986542E+010.0000000000E+00+
*       3.4845817921E+00               0
GRID*               2615               0-3.666287044E+010.0000000000E+00+
*       3.4780353386E+00               0
GRID*               2616               0-3.732977379E+010.0000000000E+00+
*       3.0829627651E+00               0
GRID*               2617               0-3.698071909E+010.0000000000E+00+
*       3.0840626293E+00               0
GRID*               2618               0-3.762981273E+010.0000000000E+00+
*       2.6901529716E+00               0
GRID*               2619               0-3.730966555E+010.0000000000E+00+
*       2.7044290762E+00               0
GRID*               2620               0-3.786729748E+010.0000000000E+00+
*       2.3148255342E+00               0
GRID*               2621               0-3.761136902E+010.0000000000E+00+
*       2.3720500884E+00               0
GRID*               2622               0-3.803028836E+010.0000000000E+00+
*       1.9059683857E+00               0
GRID*               2623               0-3.781281544E+010.0000000000E+00+
*       2.0416099080E+00               0
GRID*               2624               0-3.816429195E+010.0000000000E+00+
*       1.4535691980E+00               0
GRID*               2625               0-3.794892869E+010.0000000000E+00+
*       1.6489832154E+00               0
GRID*               2626               0-3.826582144E+010.0000000000E+00+
*       9.7456153140E-01               0
GRID*               2627               0-3.806282856E+010.0000000000E+00+
*       1.1978907362E+00               0
GRID*               2628               0-3.832740744E+010.0000000000E+00+
*       4.8312285762E-01               0
GRID*               2629               0-3.814439012E+010.0000000000E+00+
*       7.1616259438E-01               0
GRID*               2630               0-3.834743607E+010.0000000000E+00+
*       -1.119601793E-02               0
GRID*               2631               0-3.818508911E+010.0000000000E+00+
*       2.2418876913E-01               0
GRID*               2632               0-3.832648880E+010.0000000000E+00+
*       -4.977702167E-01               0
GRID*               2633               0-3.818417047E+010.0000000000E+00+
*       -2.612281641E-01               0
GRID*               2634               0-3.826670009E+010.0000000000E+00+
*       -9.600387226E-01               0
GRID*               2635               0-3.814435012E+010.0000000000E+00+
*       -7.162871447E-01               0
GRID*               2636               0-3.813701313E+010.0000000000E+00+
*       -1.402042009E+00               0
GRID*               2637               0-3.803642839E+010.0000000000E+00+
*       -1.131840738E+00               0
GRID*               2638               0-3.798449120E+010.0000000000E+00+
*       -1.874443777E+00               0
GRID*               2639               0-3.787585272E+010.0000000000E+00+
*       -1.565931418E+00               0
GRID*               2640               0-3.779663873E+010.0000000000E+00+
*       -2.310206730E+00               0
GRID*               2641               0-3.769635953E+010.0000000000E+00+
*       -2.005466496E+00               0
GRID*               2642               0-3.754993946E+010.0000000000E+00+
*       -2.711414625E+00               0
GRID*               2643               0-3.746083700E+010.0000000000E+00+
*       -2.388692938E+00               0
GRID*               2644               0-3.728957877E+010.0000000000E+00+
*       -3.128428121E+00               0
GRID*               2645               0-3.718959726E+010.0000000000E+00+
*       -2.771156086E+00               0
GRID*               2646               0-3.701276481E+010.0000000000E+00+
*       -3.533606944E+00               0
GRID*               2647               0-3.692342347E+010.0000000000E+00+
*       -3.178553137E+00               0
GRID*               2648               0-3.674612114E+010.0000000000E+00+
*       -3.917670977E+00               0
GRID*               2649               0-3.668429339E+010.0000000000E+00+
*       -3.576795646E+00               0
GRID*               2650               0-3.642504545E+010.0000000000E+00+
*       -4.259183562E+00               0
GRID*               2651               0-3.643215049E+010.0000000000E+00+
*       -3.937838383E+00               0
GRID*               2652               0-3.605970208E+010.0000000000E+00+
*       -4.573550377E+00               0
GRID*               2653               0-3.611026470E+010.0000000000E+00+
*       -4.258140644E+00               0
GRID*               2654               0-3.566530531E+010.0000000000E+00+
*       -4.850573624E+00               0
GRID*               2655               0-3.574152478E+010.0000000000E+00+
*       -4.545203042E+00               0
GRID*               2656               0-3.525547386E+010.0000000000E+00+
*       -5.078003082E+00               0
GRID*               2657               0-3.535209252E+010.0000000000E+00+
*       -4.778655999E+00               0
GRID*               2658               0-3.481780132E+010.0000000000E+00+
*       -5.242124106E+00               0
GRID*               2659               0-3.494034673E+010.0000000000E+00+
*       -4.934385998E+00               0
GRID*               2660               0-3.435735085E+010.0000000000E+00+
*       -5.410846467E+00               0
GRID*               2661               0-3.449596760E+010.0000000000E+00+
*       -5.068199152E+00               0
GRID*               2662               0-3.389014345E+010.0000000000E+00+
*       -5.560611773E+00               0
GRID*               2663               0-3.403693950E+010.0000000000E+00+
*       -5.225805949E+00               0
GRID*               2664               0-3.344325188E+010.0000000000E+00+
*       -5.700548762E+00               0
GRID*               2665               0-3.360315515E+010.0000000000E+00+
*       -5.393876113E+00               0
GRID*               2666               0-3.297865242E+010.0000000000E+00+
*       -5.774249351E+00               0
GRID*               2667               0-3.318038252E+010.0000000000E+00+
*       -5.525960963E+00               0
GRID*               2668               0-3.249174234E+010.0000000000E+00+
*       -5.802000548E+00               0
GRID*               2669               0-3.272265673E+010.0000000000E+00+
*       -5.586496500E+00               0
GRID*               2670               0-3.199127967E+010.0000000000E+00+
*       -5.801814610E+00               0
GRID*               2671               0-3.223302201E+010.0000000000E+00+
*       -5.603815158E+00               0
GRID*               2672               0-3.148557883E+010.0000000000E+00+
*       -5.790756420E+00               0
GRID*               2673               0-3.172685850E+010.0000000000E+00+
*       -5.592571030E+00               0
GRID*               2674               0-3.097400593E+010.0000000000E+00+
*       -5.771389305E+00               0
GRID*               2675               0-3.120958476E+010.0000000000E+00+
*       -5.562145726E+00               0
GRID*               2676               0-3.044900521E+010.0000000000E+00+
*       -5.747148149E+00               0
GRID*               2677               0-3.067301114E+010.0000000000E+00+
*       -5.518537455E+00               0
GRID*               2678               0-2.994040587E+010.0000000000E+00+
*       -5.762635271E+00               0
GRID*               2679               0-3.013941107E+010.0000000000E+00+
*       -5.509783421E+00               0
GRID*               2680               0-2.945803600E+010.0000000000E+00+
*       -5.783656809E+00               0
GRID*               2681               0-2.964844187E+010.0000000000E+00+
*       -5.546292081E+00               0
GRID*               2682               0-2.898310568E+010.0000000000E+00+
*       -5.784170696E+00               0
GRID*               2683               0-2.919114168E+010.0000000000E+00+
*       -5.567827505E+00               0
GRID*               2684               0-2.849947581E+010.0000000000E+00+
*       -5.769410907E+00               0
GRID*               2685               0-2.873258150E+010.0000000000E+00+
*       -5.553581602E+00               0
GRID*               2686               0-2.800322875E+010.0000000000E+00+
*       -5.748029313E+00               0
GRID*               2687               0-2.825270457E+010.0000000000E+00+
*       -5.517440220E+00               0
GRID*               2688               0-2.749542592E+010.0000000000E+00+
*       -5.730674281E+00               0
GRID*               2689               0-2.774865467E+010.0000000000E+00+
*       -5.478703594E+00               0
GRID*               2690               0-2.699160229E+010.0000000000E+00+
*       -5.742618229E+00               0
GRID*               2691               0-2.723702821E+010.0000000000E+00+
*       -5.473292510E+00               0
GRID*               2692               0-2.649742399E+010.0000000000E+00+
*       -5.749048541E+00               0
GRID*               2693               0-2.673902628E+010.0000000000E+00+
*       -5.491666771E+00               0
GRID*               2694               0-2.600449653E+010.0000000000E+00+
*       -5.746358003E+00               0
GRID*               2695               0-2.625192052E+010.0000000000E+00+
*       -5.495406544E+00               0
GRID*               2696               0-2.550480967E+010.0000000000E+00+
*       -5.739861559E+00               0
GRID*               2697               0-2.575930621E+010.0000000000E+00+
*       -5.486219562E+00               0
GRID*               2698               0-2.499795616E+010.0000000000E+00+
*       -5.745283738E+00               0
GRID*               2699               0-2.525276584E+010.0000000000E+00+
*       -5.485145298E+00               0
GRID*               2700               0-2.449316556E+010.0000000000E+00+
*       -5.756455932E+00               0
GRID*               2701               0-2.474112172E+010.0000000000E+00+
*       -5.501739671E+00               0
GRID*               2702               0-2.399460858E+010.0000000000E+00+
*       -5.766612470E+00               0
GRID*               2703               0-2.423777414E+010.0000000000E+00+
*       -5.523068402E+00               0
GRID*               2704               0-2.350263885E+010.0000000000E+00+
*       -5.769566941E+00               0
GRID*               2705               0-2.374724744E+010.0000000000E+00+
*       -5.536179411E+00               0
GRID*               2706               0-2.301046601E+010.0000000000E+00+
*       -5.759353935E+00               0
GRID*               2707               0-2.326310486E+010.0000000000E+00+
*       -5.528920876E+00               0
GRID*               2708               0-2.250832267E+010.0000000000E+00+
*       -5.753943875E+00               0
GRID*               2709               0-2.276878867E+010.0000000000E+00+
*       -5.513297810E+00               0
GRID*               2710               0-2.200499655E+010.0000000000E+00+
*       -5.751633143E+00               0
GRID*               2711               0-2.226331922E+010.0000000000E+00+
*       -5.505577018E+00               0
GRID*               2712               0-2.150267172E+010.0000000000E+00+
*       -5.750684909E+00               0
GRID*               2713               0-2.175766827E+010.0000000000E+00+
*       -5.502318052E+00               0
GRID*               2714               0-2.100134436E+010.0000000000E+00+
*       -5.750291692E+00               0
GRID*               2715               0-2.125401608E+010.0000000000E+00+
*       -5.500976601E+00               0
GRID*               2716               0-2.050065128E+010.0000000000E+00+
*       -5.750125248E+00               0
GRID*               2717               0-2.075199564E+010.0000000000E+00+
*       -5.500416940E+00               0
GRID*               2718               0-2.000030688E+010.0000000000E+00+
*       -5.750053705E+00               0
GRID*               2719               0-2.025095816E+010.0000000000E+00+
*       -5.500178954E+00               0
GRID*               2720               0-1.950014129E+010.0000000000E+00+
*       -5.750022844E+00               0
GRID*               2721               0-1.975044817E+010.0000000000E+00+
*       -5.500076549E+00               0
GRID*               2722               0-1.900006369E+010.0000000000E+00+
*       -5.750009611E+00               0
GRID*               2723               0-1.925020498E+010.0000000000E+00+
*       -5.500032455E+00               0
GRID*               2724               0-1.850002816E+010.0000000000E+00+
*       -5.750003998E+00               0
GRID*               2725               0-1.875009185E+010.0000000000E+00+
*       -5.500013609E+00               0
GRID*               2726               0-1.800001222E+010.0000000000E+00+
*       -5.750001646E+00               0
GRID*               2727               0-1.825004038E+010.0000000000E+00+
*       -5.500005644E+00               0
GRID*               2728               0-1.750000521E+010.0000000000E+00+
*       -5.750000672E+00               0
GRID*               2729               0-1.775001743E+010.0000000000E+00+
*       -5.500002318E+00               0
GRID*               2730               0-1.700000218E+010.0000000000E+00+
*       -5.750000273E+00               0
GRID*               2731               0-1.725000740E+010.0000000000E+00+
*       -5.500000945E+00               0
GRID*               2732               0-1.650000090E+010.0000000000E+00+
*       -5.750000111E+00               0
GRID*               2733               0-1.675000308E+010.0000000000E+00+
*       -5.500000385E+00               0
GRID*               2734               0-1.600000036E+010.0000000000E+00+
*       -5.750000046E+00               0
GRID*               2735               0-1.625000126E+010.0000000000E+00+
*       -5.500000157E+00               0
GRID*               2736               0-1.550000014E+010.0000000000E+00+
*       -5.750000019E+00               0
GRID*               2737               0-1.575000050E+010.0000000000E+00+
*       -5.500000065E+00               0
GRID*               2738               0-1.500000005E+010.0000000000E+00+
*       -5.750000008E+00               0
GRID*               2739               0-1.525000019E+010.0000000000E+00+
*       -5.500000028E+00               0
GRID*               2740               0-1.450000002E+010.0000000000E+00+
*       -5.750000004E+00               0
GRID*               2741               0-1.475000007E+010.0000000000E+00+
*       -5.500000012E+00               0
GRID*               2742               0-1.400000001E+010.0000000000E+00+
*       -5.750000002E+00               0
GRID*               2743               0-1.425000002E+010.0000000000E+00+
*       -5.500000006E+00               0
GRID*               2744               0-1.350000000E+010.0000000000E+00+
*       -5.750000001E+00               0
GRID*               2745               0-1.375000001E+010.0000000000E+00+
*       -5.500000003E+00               0
GRID*               2746               0-1.300000000E+010.0000000000E+00+
*       -5.750000001E+00               0
GRID*               2747               0-1.325000000E+010.0000000000E+00+
*       -5.500000002E+00               0
GRID*               2748               0-1.250000000E+010.0000000000E+00+
*       -5.750000000E+00               0
GRID*               2749               0-1.275000000E+010.0000000000E+00+
*       -5.500000001E+00               0
GRID*               2750               0-1.200000000E+010.0000000000E+00+
*       -5.750000000E+00               0
GRID*               2751               0-1.225000000E+010.0000000000E+00+
*       -5.500000000E+00               0
GRID*               2752               0-1.150000000E+010.0000000000E+00+
*       -5.750000000E+00               0
GRID*               2753               0-1.175000000E+010.0000000000E+00+
*       -5.500000000E+00               0
GRID*               2754               0-1.100000000E+010.0000000000E+00+
*       -5.750000000E+00               0
GRID*               2755               0-1.125000000E+010.0000000000E+00+
*       -5.500000000E+00               0
GRID*               2756               0-1.050000000E+010.0000000000E+00+
*       -5.750000000E+00               0
GRID*               2757               0-1.075000000E+010.0000000000E+00+
*       -5.500000000E+00               0
GRID*               2758               0-1.000000000E+010.0000000000E+00+
*       -5.750000000E+00               0
GRID*               2759               0-1.025000000E+010.0000000000E+00+
*       -5.500000000E+00               0
GRID*               2760               0-9.500000000E+000.0000000000E+00+
*       -5.750000000E+00               0
GRID*               2761               0-9.750000000E+000.0000000000E+00+
*       -5.500000000E+00               0
GRID*               2762               0-9.000000000E+000.0000000000E+00+
*       -5.750000000E+00               0
GRID*               2763               0-9.250000000E+000.0000000000E+00+
*       -5.500000000E+00               0
GRID*               2764               0-8.500000000E+000.0000000000E+00+
*       -5.750000000E+00               0
GRID*               2765               0-8.750000000E+000.0000000000E+00+
*       -5.500000000E+00               0
GRID*               2766               0-8.000000000E+000.0000000000E+00+
*       -5.750000000E+00               0
GRID*               2767               0-8.250000000E+000.0000000000E+00+
*       -5.500000000E+00               0
GRID*               2768               0-7.500000000E+000.0000000000E+00+
*       -5.750000000E+00               0
GRID*               2769               0-7.750000000E+000.0000000000E+00+
*       -5.500000000E+00               0
GRID*               2770               0-7.000000000E+000.0000000000E+00+
*       -5.750000000E+00               0
GRID*               2771               0-7.250000000E+000.0000000000E+00+
*       -5.500000000E+00               0
GRID*               2772               0-6.500000000E+000.0000000000E+00+
*       -5.750000000E+00               0
GRID*               2773               0-6.750000000E+000.0000000000E+00+
*       -5.500000000E+00               0
GRID*               2774               0-6.000000000E+000.0000000000E+00+
*       -5.750000000E+00               0
GRID*               2775               0-6.250000000E+000.0000000000E+00+
*       -5.500000000E+00               0
GRID*               2776               0-5.500000000E+000.0000000000E+00+
*       -5.750000000E+00               0
GRID*               2777               0-5.750000000E+000.0000000000E+00+
*       -5.500000000E+00               0
GRID*               2778               0-5.000000000E+000.0000000000E+00+
*       -5.750000000E+00               0
GRID*               2779               0-5.250000000E+000.0000000000E+00+
*       -5.500000000E+00               0
GRID*               2780               0-4.500000000E+000.0000000000E+00+
*       -5.750000000E+00               0
GRID*               2781               0-4.750000000E+000.0000000000E+00+
*       -5.500000000E+00               0
GRID*               2782               0-4.000000000E+000.0000000000E+00+
*       -5.750000000E+00               0
GRID*               2783               0-4.250000000E+000.0000000000E+00+
*       -5.500000000E+00               0
GRID*               2784               0-3.500000000E+000.0000000000E+00+
*       -5.750000000E+00               0
GRID*               2785               0-3.750000000E+000.0000000000E+00+
*       -5.500000000E+00               0
GRID*               2786               0-3.000000000E+000.0000000000E+00+
*       -5.750000000E+00               0
GRID*               2787               0-3.250000000E+000.0000000000E+00+
*       -5.500000000E+00               0
GRID*               2788               0-2.500000000E+000.0000000000E+00+
*       -5.750000000E+00               0
GRID*               2789               0-2.750000000E+000.0000000000E+00+
*       -5.500000000E+00               0
GRID*               2790               0-2.000000000E+000.0000000000E+00+
*       -5.750000000E+00               0
GRID*               2791               0-2.250000000E+000.0000000000E+00+
*       -5.500000000E+00               0
GRID*               2792               0-1.500000000E+000.0000000000E+00+
*       -5.750000000E+00               0
GRID*               2793               0-1.750000000E+000.0000000000E+00+
*       -5.500000000E+00               0
GRID*               2794               0-1.000000000E+000.0000000000E+00+
*       -5.750000000E+00               0
GRID*               2795               0-1.250000000E+000.0000000000E+00+
*       -5.500000000E+00               0
GRID*               2796               0-5.000000000E-010.0000000000E+00+
*       -5.750000000E+00               0
GRID*               2797               0-7.500000000E-010.0000000000E+00+
*       -5.500000000E+00               0
GRID*               2798               0-2.609024108E-150.0000000000E+00+
*       -5.750000000E+00               0
GRID*               2799               0-2.500000000E-010.0000000000E+00+
*       -5.500000000E+00               0
GRID*               2800               05.0000000000E-010.0000000000E+00+
*       -5.750000000E+00               0
GRID*               2801               02.5000000000E-010.0000000000E+00+
*       -5.500000000E+00               0
GRID*               2802               01.0000000000E+000.0000000000E+00+
*       -5.750000000E+00               0
GRID*               2803               07.5000000000E-010.0000000000E+00+
*       -5.500000000E+00               0
GRID*               2804               01.5000000000E+000.0000000000E+00+
*       -5.750000000E+00               0
GRID*               2805               01.2500000000E+000.0000000000E+00+
*       -5.500000000E+00               0
GRID*               2806               02.0000000000E+000.0000000000E+00+
*       -5.750000000E+00               0
GRID*               2807               01.7500000000E+000.0000000000E+00+
*       -5.500000000E+00               0
GRID*               2808               02.5000000000E+000.0000000000E+00+
*       -5.750000000E+00               0
GRID*               2809               02.2500000000E+000.0000000000E+00+
*       -5.500000000E+00               0
GRID*               2810               03.0000000000E+000.0000000000E+00+
*       -5.750000000E+00               0
GRID*               2811               02.7500000000E+000.0000000000E+00+
*       -5.500000000E+00               0
GRID*               2812               03.5000000000E+000.0000000000E+00+
*       -5.750000000E+00               0
GRID*               2813               03.2500000000E+000.0000000000E+00+
*       -5.500000000E+00               0
GRID*               2814               04.0000000000E+000.0000000000E+00+
*       -5.750000000E+00               0
GRID*               2815               03.7500000000E+000.0000000000E+00+
*       -5.500000000E+00               0
GRID*               2816               04.5000000000E+000.0000000000E+00+
*       -5.750000000E+00               0
GRID*               2817               04.2500000000E+000.0000000000E+00+
*       -5.500000000E+00               0
GRID*               2818               05.0000000000E+000.0000000000E+00+
*       -5.750000000E+00               0
GRID*               2819               04.7500000000E+000.0000000000E+00+
*       -5.500000000E+00               0
GRID*               2820               05.5000000000E+000.0000000000E+00+
*       -5.750000000E+00               0
GRID*               2821               05.2500000000E+000.0000000000E+00+
*       -5.500000000E+00               0
GRID*               2822               06.0000000000E+000.0000000000E+00+
*       -5.750000000E+00               0
GRID*               2823               05.7500000000E+000.0000000000E+00+
*       -5.500000000E+00               0
GRID*               2824               06.5000000000E+000.0000000000E+00+
*       -5.750000000E+00               0
GRID*               2825               06.2500000000E+000.0000000000E+00+
*       -5.500000000E+00               0
GRID*               2826               07.0000000000E+000.0000000000E+00+
*       -5.750000000E+00               0
GRID*               2827               06.7500000000E+000.0000000000E+00+
*       -5.500000000E+00               0
GRID*               2828               07.5000000000E+000.0000000000E+00+
*       -5.750000000E+00               0
GRID*               2829               07.2500000000E+000.0000000000E+00+
*       -5.500000000E+00               0
GRID*               2830               08.0000000000E+000.0000000000E+00+
*       -5.750000000E+00               0
GRID*               2831               07.7500000000E+000.0000000000E+00+
*       -5.500000000E+00               0
GRID*               2832               08.5000000000E+000.0000000000E+00+
*       -5.750000000E+00               0
GRID*               2833               08.2500000001E+000.0000000000E+00+
*       -5.500000000E+00               0
GRID*               2834               09.0000000001E+000.0000000000E+00+
*       -5.750000000E+00               0
GRID*               2835               08.7500000001E+000.0000000000E+00+
*       -5.500000000E+00               0
GRID*               2836               09.5000000002E+000.0000000000E+00+
*       -5.750000000E+00               0
GRID*               2837               09.2500000002E+000.0000000000E+00+
*       -5.500000000E+00               0
GRID*               2838               01.0000000000E+010.0000000000E+00+
*       -5.750000000E+00               0
GRID*               2839               09.7500000004E+000.0000000000E+00+
*       -5.500000000E+00               0
GRID*               2840               01.0500000000E+010.0000000000E+00+
*       -5.750000000E+00               0
GRID*               2841               01.0250000001E+010.0000000000E+00+
*       -5.500000000E+00               0
GRID*               2842               01.1000000001E+010.0000000000E+00+
*       -5.750000000E+00               0
GRID*               2843               01.0750000001E+010.0000000000E+00+
*       -5.500000000E+00               0
GRID*               2844               01.1500000001E+010.0000000000E+00+
*       -5.750000000E+00               0
GRID*               2845               01.1250000002E+010.0000000000E+00+
*       -5.500000000E+00               0
GRID*               2846               01.2000000002E+010.0000000000E+00+
*       -5.750000000E+00               0
GRID*               2847               01.1750000004E+010.0000000000E+00+
*       -5.499999999E+00               0
GRID*               2848               01.2500000004E+010.0000000000E+00+
*       -5.749999999E+00               0
GRID*               2849               01.2250000006E+010.0000000000E+00+
*       -5.499999999E+00               0
GRID*               2850               01.3000000007E+010.0000000000E+00+
*       -5.749999999E+00               0
GRID*               2851               01.2750000011E+010.0000000000E+00+
*       -5.499999999E+00               0
GRID*               2852               01.3500000011E+010.0000000000E+00+
*       -5.749999999E+00               0
GRID*               2853               01.3250000018E+010.0000000000E+00+
*       -5.499999998E+00               0
GRID*               2854               01.4000000019E+010.0000000000E+00+
*       -5.749999999E+00               0
GRID*               2855               01.3750000030E+010.0000000000E+00+
*       -5.499999998E+00               0
GRID*               2856               01.4500000035E+010.0000000000E+00+
*       -5.750000001E+00               0
GRID*               2857               01.4250000054E+010.0000000000E+00+
*       -5.500000001E+00               0
GRID*               2858               01.5000000072E+010.0000000000E+00+
*       -5.750000008E+00               0
GRID*               2859               01.4750000107E+010.0000000000E+00+
*       -5.500000010E+00               0
GRID*               2860               01.5500000159E+010.0000000000E+00+
*       -5.750000030E+00               0
GRID*               2861               01.5250000231E+010.0000000000E+00+
*       -5.500000039E+00               0
GRID*               2862               01.6000000380E+010.0000000000E+00+
*       -5.750000092E+00               0
GRID*               2863               01.5750000539E+010.0000000000E+00+
*       -5.500000122E+00               0
GRID*               2864               01.6500000948E+010.0000000000E+00+
*       -5.750000259E+00               0
GRID*               2865               01.6250001328E+010.0000000000E+00+
*       -5.500000351E+00               0
GRID*               2866               01.7000002415E+010.0000000000E+00+
*       -5.750000702E+00               0
GRID*               2867               01.6750003363E+010.0000000000E+00+
*       -5.500000962E+00               0
GRID*               2868               01.7500006197E+010.0000000000E+00+
*       -5.750001857E+00               0
GRID*               2869               01.7250008612E+010.0000000000E+00+
*       -5.500002559E+00               0
GRID*               2870               01.8000015875E+010.0000000000E+00+
*       -5.750004836E+00               0
GRID*               2871               01.7750022072E+010.0000000000E+00+
*       -5.500006692E+00               0
GRID*               2872               01.8500040328E+010.0000000000E+00+
*       -5.750012444E+00               0
GRID*               2873               01.8250056203E+010.0000000000E+00+
*       -5.500017280E+00               0
GRID*               2874               01.9000100879E+010.0000000000E+00+
*       -5.750031639E+00               0
GRID*               2875               01.8750141207E+010.0000000000E+00+
*       -5.500044084E+00               0
GRID*               2876               01.9500246340E+010.0000000000E+00+
*       -5.750079295E+00               0
GRID*               2877               01.9250347219E+010.0000000000E+00+
*       -5.500110935E+00               0
GRID*               2878               02.0000581543E+010.0000000000E+00+
*       -5.750195565E+00               0
GRID*               2879               01.9750827883E+010.0000000000E+00+
*       -5.500274860E+00               0
GRID*               2880               02.0501304824E+010.0000000000E+00+
*       -5.750489007E+00               0
GRID*               2881               02.0251886367E+010.0000000000E+00+
*       -5.500684571E+00               0
GRID*               2882               02.1002714539E+010.0000000000E+00+
*       -5.751225163E+00               0
GRID*               2883               02.0754019364E+010.0000000000E+00+
*       -5.501714169E+00               0
GRID*               2884               02.1505102658E+010.0000000000E+00+
*       -5.752969755E+00               0
GRID*               2885               02.1257817198E+010.0000000000E+00+
*       -5.504194918E+00               0
GRID*               2886               02.2008208677E+010.0000000000E+00+
*       -5.756843802E+00               0
GRID*               2887               02.1763311335E+010.0000000000E+00+
*       -5.509813557E+00               0
GRID*               2888               02.2509229916E+010.0000000000E+00+
*       -5.764727198E+00               0
GRID*               2889               02.2267438593E+010.0000000000E+00+
*       -5.521571000E+00               0
GRID*               2890               02.2999613479E+010.0000000000E+00+
*       -5.777297842E+00               0
GRID*               2891               02.2758843395E+010.0000000000E+00+
*       -5.542025041E+00               0
GRID*               2892               02.3489908145E+010.0000000000E+00+
*       -5.775989324E+00               0
GRID*               2893               02.3239521624E+010.0000000000E+00+
*       -5.553287166E+00               0
GRID*               2894               02.3987616553E+010.0000000000E+00+
*       -5.766413320E+00               0
GRID*               2895               02.3727524698E+010.0000000000E+00+
*       -5.542402644E+00               0
GRID*               2896               02.4492704494E+010.0000000000E+00+
*       -5.753123805E+00               0
GRID*               2897               02.4230321046E+010.0000000000E+00+
*       -5.519537125E+00               0
GRID*               2898               02.5002666713E+010.0000000000E+00+
*       -5.741603828E+00               0
GRID*               2899               02.4745371207E+010.0000000000E+00+
*       -5.494727633E+00               0
GRID*               2900               02.5508937911E+010.0000000000E+00+
*       -5.741544370E+00               0
GRID*               2901               02.5261604624E+010.0000000000E+00+
*       -5.483148198E+00               0
GRID*               2902               02.6008145912E+010.0000000000E+00+
*       -5.744456332E+00               0
GRID*               2903               02.5767083823E+010.0000000000E+00+
*       -5.486000702E+00               0
GRID*               2904               02.6503402111E+010.0000000000E+00+
*       -5.744639684E+00               0
GRID*               2905               02.6261548024E+010.0000000000E+00+
*       -5.489096017E+00               0
GRID*               2906               02.6998977507E+010.0000000000E+00+
*       -5.740705646E+00               0
GRID*               2907               02.6752379618E+010.0000000000E+00+
*       -5.485345330E+00               0
GRID*               2908               02.7498495082E+010.0000000000E+00+
*       -5.734367913E+00               0
GRID*               2909               02.7247472589E+010.0000000000E+00+
*       -5.475073559E+00               0
GRID*               2910               02.8003345736E+010.0000000000E+00+
*       -5.731516745E+00               0
GRID*               2911               02.7751840818E+010.0000000000E+00+
*       -5.465884658E+00               0
GRID*               2912               02.8508458966E+010.0000000000E+00+
*       -5.741514135E+00               0
GRID*               2913               02.8261804702E+010.0000000000E+00+
*       -5.473030880E+00               0
GRID*               2914               02.9007484777E+010.0000000000E+00+
*       -5.753463624E+00               0
GRID*               2915               02.8765943742E+010.0000000000E+00+
*       -5.494977759E+00               0
GRID*               2916               02.9504332174E+010.0000000000E+00+
*       -5.755696210E+00               0
GRID*               2917               02.9261816951E+010.0000000000E+00+
*       -5.509159834E+00               0
GRID*               2918               03.0017821388E+010.0000000000E+00+
*       -5.739380635E+00               0
GRID*               2919               02.9772153562E+010.0000000000E+00+
*       -5.495076845E+00               0
GRID*               2920               03.0539853666E+010.0000000000E+00+
*       -5.754735849E+00               0
GRID*               2921               03.0307675053E+010.0000000000E+00+
*       -5.494116485E+00               0
GRID*               2922               03.1043878999E+010.0000000000E+00+
*       -5.770695799E+00               0
GRID*               2923               03.0833732665E+010.0000000000E+00+
*       -5.525431648E+00               0
GRID*               2924               03.1526525930E+010.0000000000E+00+
*       -5.773549274E+00               0
GRID*               2925               03.1320404929E+010.0000000000E+00+
*       -5.544245073E+00               0
GRID*               2926               03.2004186788E+010.0000000000E+00+
*       -5.735775299E+00               0
GRID*               2927               03.1780712717E+010.0000000000E+00+
*       -5.509324573E+00               0
GRID*               2928               03.2499177003E+010.0000000000E+00+
*       -5.725157949E+00               0
GRID*               2929               03.2253363790E+010.0000000000E+00+
*       -5.460933248E+00               0
GRID*               2930               03.2991489554E+010.0000000000E+00+
*       -5.711505068E+00               0
GRID*               2931               03.2742928526E+010.0000000000E+00+
*       -5.446909618E+00               0
GRID*               2932               03.3462489339E+010.0000000000E+00+
*       -5.697366338E+00               0
GRID*               2933               03.3212457115E+010.0000000000E+00+
*       -5.460034256E+00               0
GRID*               2934               03.3930084435E+010.0000000000E+00+
*       -5.616069369E+00               0
GRID*               2935               03.3662333594E+010.0000000000E+00+
*       -5.446151285E+00               0
GRID*               2936               03.4409057194E+010.0000000000E+00+
*       -5.485230353E+00               0
GRID*               2937               03.4128586824E+010.0000000000E+00+
*       -5.355647430E+00               0
GRID*               2938               03.4850327554E+010.0000000000E+00+
*       -5.352155470E+00               0
GRID*               2939               03.4580200180E+010.0000000000E+00+
*       -5.252614401E+00               0
GRID*               2940               03.5270211583E+010.0000000000E+00+
*       -5.149822635E+00               0
GRID*               2941               03.4987610686E+010.0000000000E+00+
*       -5.116236915E+00               0
GRID*               2942               03.5689041560E+010.0000000000E+00+
*       -4.901630633E+00               0
GRID*               2943               03.5390566491E+010.0000000000E+00+
*       -4.901532562E+00               0
GRID*               2944               03.6091604205E+010.0000000000E+00+
*       -4.614462700E+00               0
GRID*               2945               03.5797163155E+010.0000000000E+00+
*       -4.637172374E+00               0
GRID*               2946               03.6468653797E+010.0000000000E+00+
*       -4.294440179E+00               0
GRID*               2947               03.6185775172E+010.0000000000E+00+
*       -4.334309584E+00               0
GRID*               2948               03.6812332816E+010.0000000000E+00+
*       -3.949383196E+00               0
GRID*               2949               03.6541970517E+010.0000000000E+00+
*       -4.004807219E+00               0
GRID*               2950               03.7111983679E+010.0000000000E+00+
*       -3.592376332E+00               0
GRID*               2951               03.6849723941E+010.0000000000E+00+
*       -3.667277253E+00               0
GRID*               2952               03.7349454169E+010.0000000000E+00+
*       -3.197746420E+00               0
GRID*               2953               03.7082517735E+010.0000000000E+00+
*       -3.306640824E+00               0
GRID*               2954               03.7593684996E+010.0000000000E+00+
*       -2.765576035E+00               0
GRID*               2955               03.7293218194E+010.0000000000E+00+
*       -2.894635794E+00               0
GRID*               2956               03.7787040315E+010.0000000000E+00+
*       -2.332225372E+00               0
GRID*               2957               03.7494984118E+010.0000000000E+00+
*       -2.464872990E+00               0
GRID*               2958               03.7915100910E+010.0000000000E+00+
*       -1.878977139E+00               0
GRID*               2959               03.7617370823E+010.0000000000E+00+
*       -2.032018499E+00               0
GRID*               2960               03.8045559675E+010.0000000000E+00+
*       -1.404983785E+00               0
GRID*               2961               03.7715008976E+010.0000000000E+00+
*       -1.573406556E+00               0
GRID*               2962               03.8156175456E+010.0000000000E+00+
*       -9.269039860E-01               0
GRID*               2963               03.7834450304E+010.0000000000E+00+
*       -1.101647778E+00               0
GRID*               2964               03.8258147236E+010.0000000000E+00+
*       -4.706101455E-01               0
GRID*               2965               03.7965483928E+010.0000000000E+00+
*       -6.559923368E-01               0
GRID*               2966               03.8291947486E+010.0000000000E+00+
*       -3.090319213E-03               0
GRID*               2967               03.8060340318E+010.0000000000E+00+
*       -2.259623941E-01               0
GRID*               2968               03.8275793614E+010.0000000000E+00+
*       4.7861155843E-01               0
GRID*               2969               03.8077986697E+010.0000000000E+00+
*       2.2778316866E-01               0
GRID*               2970               03.8212445405E+010.0000000000E+00+
*       9.5642726114E-01               0
GRID*               2971               03.8039400256E+010.0000000000E+00+
*       6.9351702494E-01               0
GRID*               2972               03.8101947171E+010.0000000000E+00+
*       1.4121219351E+00               0
GRID*               2973               03.7947107749E+010.0000000000E+00+
*       1.1383092031E+00               0
GRID*               2974               03.7924707211E+010.0000000000E+00+
*       1.8455299447E+00               0
GRID*               2975               03.7781002773E+010.0000000000E+00+
*       1.5470975116E+00               0
GRID*               2976               03.7732327502E+010.0000000000E+00+
*       2.2994819828E+00               0
GRID*               2977               03.7572264311E+010.0000000000E+00+
*       1.9658279157E+00               0
GRID*               2978               03.7510716015E+010.0000000000E+00+
*       2.7486079848E+00               0
GRID*               2979               03.7357302323E+010.0000000000E+00+
*       2.4151615503E+00               0
GRID*               2980               03.7263389478E+010.0000000000E+00+
*       3.1846070669E+00               0
GRID*               2981               03.7124184522E+010.0000000000E+00+
*       2.8645283912E+00               0
GRID*               2982               03.7024169091E+010.0000000000E+00+
*       3.6172116964E+00               0
GRID*               2983               03.6908638456E+010.0000000000E+00+
*       3.3183368354E+00               0
GRID*               2984               03.6775816560E+010.0000000000E+00+
*       3.9854190241E+00               0
GRID*               2985               03.6725393097E+010.0000000000E+00+
*       3.7281484450E+00               0
GRID*               2986               03.6466798704E+010.0000000000E+00+
*       4.2988054676E+00               0
GRID*               2987               03.6503599168E+010.0000000000E+00+
*       4.0452083354E+00               0
GRID*               2988               03.6106107539E+010.0000000000E+00+
*       4.6029300926E+00               0
GRID*               2989               03.6198423412E+010.0000000000E+00+
*       4.3271422656E+00               0
GRID*               2990               03.5708008467E+010.0000000000E+00+
*       4.8883330884E+00               0
GRID*               2991               03.5830633395E+010.0000000000E+00+
*       4.6123422222E+00               0
GRID*               2992               03.5282078222E+010.0000000000E+00+
*       5.1428883884E+00               0
GRID*               2993               03.5421400036E+010.0000000000E+00+
*       4.8813007702E+00               0
GRID*               2994               03.4834510729E+010.0000000000E+00+
*       5.3614646248E+00               0
GRID*               2995               03.4983660500E+010.0000000000E+00+
*       5.1186118234E+00               0
GRID*               2996               03.4370411903E+010.0000000000E+00+
*       5.5417666051E+00               0
GRID*               2997               03.4525738064E+010.0000000000E+00+
*       5.3184598087E+00               0
GRID*               2998               03.3898855092E+010.0000000000E+00+
*       5.6857395406E+00               0
GRID*               2999               03.4058712190E+010.0000000000E+00+
*       5.4818538542E+00               0
GRID*               3000               03.3465134376E+010.0000000000E+00+
*       5.7962137617E+00               0
GRID*               3001               03.3633749287E+010.0000000000E+00+
*       5.6146688801E+00               0
GRID*               3002               03.3019951677E+010.0000000000E+00+
*       5.8334185371E+00               0
GRID*               3003               03.3243564274E+010.0000000000E+00+
*       5.6807951487E+00               0
GRID*               3004               03.2799772105E+010.0000000000E+00+
*       5.6949981917E+00               0
GRID*               3005               03.2500000024E+010.0000000000E+00+
*       -4.662058431E+00               0
GRID*               3006               03.1987134881E+010.0000000000E+00+
*       -4.633762406E+00               0
GRID*               3007               03.2231428743E+010.0000000000E+00+
*       -4.867926839E+00               0
GRID*               3008               03.1480496242E+010.0000000000E+00+
*       -4.549219183E+00               0
GRID*               3009               03.1697546930E+010.0000000000E+00+
*       -4.808836510E+00               0
GRID*               3010               03.0986232630E+010.0000000000E+00+
*       -4.409455167E+00               0
GRID*               3011               03.1173406258E+010.0000000000E+00+
*       -4.691373942E+00               0
GRID*               3012               03.0510343127E+010.0000000000E+00+
*       -4.216165918E+00               0
GRID*               3013               03.0665367767E+010.0000000000E+00+
*       -4.516964477E+00               0
GRID*               3014               03.0058606053E+010.0000000000E+00+
*       -3.971697320E+00               0
GRID*               3015               03.0179598980E+010.0000000000E+00+
*       -4.287724499E+00               0
GRID*               3016               02.9636505373E+010.0000000000E+00+
*       -3.679018870E+00               0
GRID*               3017               02.9721997916E+010.0000000000E+00+
*       -4.006437673E+00               0
GRID*               3018               02.9249161396E+010.0000000000E+00+
*       -3.341682193E+00               0
GRID*               3019               02.9298117474E+010.0000000000E+00+
*       -3.676518757E+00               0
GRID*               3020               02.8901279602E+010.0000000000E+00+
*       -2.963780244E+00               0
GRID*               3021               02.8913102907E+010.0000000000E+00+
*       -3.301970824E+00               0
GRID*               3022               02.8597081476E+010.0000000000E+00+
*       -2.549903723E+00               0
GRID*               3023               02.8571629289E+010.0000000000E+00+
*       -2.887341514E+00               0
GRID*               3024               02.8340259457E+010.0000000000E+00+
*       -2.105074562E+00               0
GRID*               3025               02.8277840882E+010.0000000000E+00+
*       -2.437664653E+00               0
GRID*               3026               02.8133930420E+010.0000000000E+00+
*       -1.634692712E+00               0
GRID*               3027               02.8035303374E+010.0000000000E+00+
*       -1.958397691E+00               0
GRID*               3028               02.7980599979E+010.0000000000E+00+
*       -1.144467942E+00               0
GRID*               3029               02.7846961121E+010.0000000000E+00+
*       -1.455358499E+00               0
GRID*               3030               02.7882127882E+010.0000000000E+00+
*       -6.403503588E-01               0
GRID*               3031               02.7715100112E+010.0000000000E+00+
*       -9.346528915E-01               0
GRID*               3032               02.7839712172E+010.0000000000E+00+
*       -1.284600651E-01               0
GRID*               3033               02.7641321618E+010.0000000000E+00+
*       -4.026017025E-01               0
GRID*               3034               02.7853864299E+010.0000000000E+00+
*       3.8498927040E-01               0
GRID*               3035               02.7626520874E+010.0000000000E+00+
*       1.3433611182E-01               0
GRID*               3036               02.7924415632E+010.0000000000E+00+
*       8.9376738377E-01               0
GRID*               3037               02.7670877425E+010.0000000000E+00+
*       6.6964443769E-01               0
GRID*               3038               02.8050509566E+010.0000000000E+00+
*       1.3916940237E+00               0
GRID*               3039               02.7773854345E+010.0000000000E+00+
*       1.1968240358E+00               0
GRID*               3040               02.8230611800E+010.0000000000E+00+
*       1.8727263228E+00               0
GRID*               3041               02.7934199474E+010.0000000000E+00+
*       1.7094735274E+00               0
GRID*               3042               02.8462538830E+010.0000000000E+00+
*       2.3310292720E+00               0
GRID*               3043               02.8149966106E+010.0000000000E+00+
*       2.2013734915E+00               0
GRID*               3044               02.8743477087E+010.0000000000E+00+
*       2.7610352855E+00               0
GRID*               3045               02.8418537509E+010.0000000000E+00+
*       2.6665529299E+00               0
GRID*               3046               02.9070012469E+010.0000000000E+00+
*       3.1575256935E+00               0
GRID*               3047               02.8736652176E+010.0000000000E+00+
*       3.0993628961E+00               0
GRID*               3048               02.9438183697E+010.0000000000E+00+
*       3.5156885093E+00               0
GRID*               3049               02.9100447926E+010.0000000000E+00+
*       3.4945507705E+00               0
GRID*               3050               02.9843521661E+010.0000000000E+00+
*       3.8311763372E+00               0
GRID*               3051               02.9505510229E+010.0000000000E+00+
*       3.8473203029E+00               0
GRID*               3052               03.0281106150E+010.0000000000E+00+
*       4.1001578039E+00               0
GRID*               3053               02.9946922112E+010.0000000000E+00+
*       4.1533884267E+00               0
GRID*               3054               03.0745623795E+010.0000000000E+00+
*       4.3193689290E+00               0
GRID*               3055               03.0419324375E+010.0000000000E+00+
*       4.4090394049E+00               0
GRID*               3056               03.1231437588E+010.0000000000E+00+
*       4.4861494409E+00               0
GRID*               3057               03.0916982746E+010.0000000000E+00+
*       4.6111709535E+00               0
GRID*               3058               03.1732650833E+010.0000000000E+00+
*       4.5984740306E+00               0
GRID*               3059               03.1433857614E+010.0000000000E+00+
*       4.7573294689E+00               0
GRID*               3060               03.2243178146E+010.0000000000E+00+
*       4.6549785823E+00               0
GRID*               3061               03.1963674185E+010.0000000000E+00+
*       4.8457399619E+00               0
GRID*               3062               03.2756822161E+010.0000000000E+00+
*       4.6549785814E+00               0
GRID*               3063               03.2500000174E+010.0000000000E+00+
*       4.8753296054E+00               0
GRID*               3064               03.3267349409E+010.0000000000E+00+
*       4.5984738455E+00               0
GRID*               3065               03.3036326123E+010.0000000000E+00+
*       4.8457398652E+00               0
GRID*               3066               03.3768562574E+010.0000000000E+00+
*       4.4861493444E+00               0
GRID*               3067               03.3566142598E+010.0000000000E+00+
*       4.7573293256E+00               0
GRID*               3068               03.4254376378E+010.0000000000E+00+
*       4.3193687831E+00               0
GRID*               3069               03.4083017421E+010.0000000000E+00+
*       4.6111708321E+00               0
GRID*               3070               03.4718894216E+010.0000000000E+00+
*       4.1001575920E+00               0
GRID*               3071               03.4580675928E+010.0000000000E+00+
*       4.4090392115E+00               0
GRID*               3072               03.5156478724E+010.0000000000E+00+
*       3.8311757176E+00               0
GRID*               3073               03.5053078355E+010.0000000000E+00+
*       4.1533879551E+00               0
GRID*               3074               03.5561815936E+010.0000000000E+00+
*       3.5156880297E+00               0
GRID*               3075               03.5494489809E+010.0000000000E+00+
*       3.8473197315E+00               0
GRID*               3076               03.5929987415E+010.0000000000E+00+
*       3.1575259450E+00               0
GRID*               3077               03.5899551734E+010.0000000000E+00+
*       3.4945507510E+00               0
GRID*               3078               03.6256523982E+010.0000000000E+00+
*       2.7610344573E+00               0
GRID*               3079               03.6263348345E+010.0000000000E+00+
*       3.0993625510E+00               0
GRID*               3080               03.6537459723E+010.0000000000E+00+
*       2.3310289647E+00               0
GRID*               3081               03.6581462321E+010.0000000000E+00+
*       2.6665523293E+00               0
GRID*               3082               03.6769389102E+010.0000000000E+00+
*       1.8727281035E+00               0
GRID*               3083               03.6850033448E+010.0000000000E+00+
*       2.2013745668E+00               0
GRID*               3084               03.6949491575E+010.0000000000E+00+
*       1.3916932459E+00               0
GRID*               3085               03.7065801507E+010.0000000000E+00+
*       1.7094741405E+00               0
GRID*               3086               03.7075584868E+010.0000000000E+00+
*       8.9376670815E-01               0
GRID*               3087               03.7226146534E+010.0000000000E+00+
*       1.1968230676E+00               0
GRID*               3088               03.7146135699E+010.0000000000E+00+
*       3.8498889157E-01               0
GRID*               3089               03.7329122846E+010.0000000000E+00+
*       6.6964375108E-01               0
GRID*               3090               03.7160287838E+010.0000000000E+00+
*       -1.284602701E-01               0
GRID*               3091               03.7373479133E+010.0000000000E+00+
*       1.3433575614E-01               0
GRID*               3092               03.7117872076E+010.0000000000E+00+
*       -6.403490391E-01               0
GRID*               3093               03.7358678381E+010.0000000000E+00+
*       -4.026009328E-01               0
GRID*               3094               03.7019401949E+010.0000000000E+00+
*       -1.144468631E+00               0
GRID*               3095               03.7284900871E+010.0000000000E+00+
*       -9.346523803E-01               0
GRID*               3096               03.6866068879E+010.0000000000E+00+
*       -1.634693213E+00               0
GRID*               3097               03.7153039447E+010.0000000000E+00+
*       -1.455359237E+00               0
GRID*               3098               03.6659741382E+010.0000000000E+00+
*       -2.105074984E+00               0
GRID*               3099               03.6964696629E+010.0000000000E+00+
*       -1.958398299E+00               0
GRID*               3100               03.6402917989E+010.0000000000E+00+
*       -2.549903220E+00               0
GRID*               3101               03.6722159263E+010.0000000000E+00+
*       -2.437664630E+00               0
GRID*               3102               03.6098721197E+010.0000000000E+00+
*       -2.963780859E+00               0
GRID*               3103               03.6428370840E+010.0000000000E+00+
*       -2.887341576E+00               0
GRID*               3104               03.5750837435E+010.0000000000E+00+
*       -3.341682184E+00               0
GRID*               3105               03.6086896793E+010.0000000000E+00+
*       -3.301971255E+00               0
GRID*               3106               03.5363494821E+010.0000000000E+00+
*       -3.679018175E+00               0
GRID*               3107               03.5701881983E+010.0000000000E+00+
*       -3.676518455E+00               0
GRID*               3108               03.4941394123E+010.0000000000E+00+
*       -3.971697150E+00               0
GRID*               3109               03.5278002367E+010.0000000000E+00+
*       -4.006437171E+00               0
GRID*               3110               03.4489656875E+010.0000000000E+00+
*       -4.216165731E+00               0
GRID*               3111               03.4820401147E+010.0000000000E+00+
*       -4.287724299E+00               0
GRID*               3112               03.4013767424E+010.0000000000E+00+
*       -4.409455160E+00               0
GRID*               3113               03.4334632275E+010.0000000000E+00+
*       -4.516964374E+00               0
GRID*               3114               03.3519503721E+010.0000000000E+00+
*       -4.549219068E+00               0
GRID*               3115               03.3826593753E+010.0000000000E+00+
*       -4.691373880E+00               0
GRID*               3116               03.3012865200E+010.0000000000E+00+
*       -4.633762368E+00               0
GRID*               3117               03.3302453103E+010.0000000000E+00+
*       -4.808836432E+00               0
GRID*               3118               03.2768571343E+010.0000000000E+00+
*       -4.867926819E+00               0
GRID*               3119               0-3.250000002E+010.0000000000E+00+
*       -4.662058431E+00               0
GRID*               3120               0-3.301286520E+010.0000000000E+00+
*       -4.633762368E+00               0
GRID*               3121               0-3.276857134E+010.0000000000E+00+
*       -4.867926819E+00               0
GRID*               3122               0-3.351950372E+010.0000000000E+00+
*       -4.549219068E+00               0
GRID*               3123               0-3.330245310E+010.0000000000E+00+
*       -4.808836432E+00               0
GRID*               3124               0-3.401376742E+010.0000000000E+00+
*       -4.409455160E+00               0
GRID*               3125               0-3.382659375E+010.0000000000E+00+
*       -4.691373880E+00               0
GRID*               3126               0-3.448965687E+010.0000000000E+00+
*       -4.216165731E+00               0
GRID*               3127               0-3.433463227E+010.0000000000E+00+
*       -4.516964374E+00               0
GRID*               3128               0-3.494139412E+010.0000000000E+00+
*       -3.971697150E+00               0
GRID*               3129               0-3.482040115E+010.0000000000E+00+
*       -4.287724299E+00               0
GRID*               3130               0-3.536349482E+010.0000000000E+00+
*       -3.679018175E+00               0
GRID*               3131               0-3.527800237E+010.0000000000E+00+
*       -4.006437171E+00               0
GRID*               3132               0-3.575083744E+010.0000000000E+00+
*       -3.341682184E+00               0
GRID*               3133               0-3.570188198E+010.0000000000E+00+
*       -3.676518455E+00               0
GRID*               3134               0-3.609872120E+010.0000000000E+00+
*       -2.963780859E+00               0
GRID*               3135               0-3.608689679E+010.0000000000E+00+
*       -3.301971255E+00               0
GRID*               3136               0-3.640291799E+010.0000000000E+00+
*       -2.549903220E+00               0
GRID*               3137               0-3.642837084E+010.0000000000E+00+
*       -2.887341576E+00               0
GRID*               3138               0-3.665974138E+010.0000000000E+00+
*       -2.105074984E+00               0
GRID*               3139               0-3.672215926E+010.0000000000E+00+
*       -2.437664630E+00               0
GRID*               3140               0-3.686606888E+010.0000000000E+00+
*       -1.634693213E+00               0
GRID*               3141               0-3.696469663E+010.0000000000E+00+
*       -1.958398299E+00               0
GRID*               3142               0-3.701940195E+010.0000000000E+00+
*       -1.144468631E+00               0
GRID*               3143               0-3.715303945E+010.0000000000E+00+
*       -1.455359237E+00               0
GRID*               3144               0-3.711787208E+010.0000000000E+00+
*       -6.403490391E-01               0
GRID*               3145               0-3.728490087E+010.0000000000E+00+
*       -9.346523803E-01               0
GRID*               3146               0-3.716028784E+010.0000000000E+00+
*       -1.284602701E-01               0
GRID*               3147               0-3.735867838E+010.0000000000E+00+
*       -4.026009328E-01               0
GRID*               3148               0-3.714613570E+010.0000000000E+00+
*       3.8498889157E-01               0
GRID*               3149               0-3.737347913E+010.0000000000E+00+
*       1.3433575614E-01               0
GRID*               3150               0-3.707558487E+010.0000000000E+00+
*       8.9376670815E-01               0
GRID*               3151               0-3.732912285E+010.0000000000E+00+
*       6.6964375108E-01               0
GRID*               3152               0-3.694949157E+010.0000000000E+00+
*       1.3916932459E+00               0
GRID*               3153               0-3.722614653E+010.0000000000E+00+
*       1.1968230676E+00               0
GRID*               3154               0-3.676938910E+010.0000000000E+00+
*       1.8727281035E+00               0
GRID*               3155               0-3.706580151E+010.0000000000E+00+
*       1.7094741405E+00               0
GRID*               3156               0-3.653745972E+010.0000000000E+00+
*       2.3310289647E+00               0
GRID*               3157               0-3.685003345E+010.0000000000E+00+
*       2.2013745668E+00               0
GRID*               3158               0-3.625652398E+010.0000000000E+00+
*       2.7610344573E+00               0
GRID*               3159               0-3.658146232E+010.0000000000E+00+
*       2.6665523293E+00               0
GRID*               3160               0-3.592998742E+010.0000000000E+00+
*       3.1575259450E+00               0
GRID*               3161               0-3.626334835E+010.0000000000E+00+
*       3.0993625510E+00               0
GRID*               3162               0-3.556181594E+010.0000000000E+00+
*       3.5156880297E+00               0
GRID*               3163               0-3.589955173E+010.0000000000E+00+
*       3.4945507510E+00               0
GRID*               3164               0-3.515647872E+010.0000000000E+00+
*       3.8311757176E+00               0
GRID*               3165               0-3.549448981E+010.0000000000E+00+
*       3.8473197315E+00               0
GRID*               3166               0-3.471889422E+010.0000000000E+00+
*       4.1001575920E+00               0
GRID*               3167               0-3.505307836E+010.0000000000E+00+
*       4.1533879551E+00               0
GRID*               3168               0-3.425437638E+010.0000000000E+00+
*       4.3193687831E+00               0
GRID*               3169               0-3.458067593E+010.0000000000E+00+
*       4.4090392115E+00               0
GRID*               3170               0-3.376856257E+010.0000000000E+00+
*       4.4861493444E+00               0
GRID*               3171               0-3.408301742E+010.0000000000E+00+
*       4.6111708321E+00               0
GRID*               3172               0-3.326734941E+010.0000000000E+00+
*       4.5984738455E+00               0
GRID*               3173               0-3.356614260E+010.0000000000E+00+
*       4.7573293256E+00               0
GRID*               3174               0-3.275682216E+010.0000000000E+00+
*       4.6549785814E+00               0
GRID*               3175               0-3.303632612E+010.0000000000E+00+
*       4.8457398652E+00               0
GRID*               3176               0-3.224317815E+010.0000000000E+00+
*       4.6549785823E+00               0
GRID*               3177               0-3.250000017E+010.0000000000E+00+
*       4.8753296054E+00               0
GRID*               3178               0-3.173265083E+010.0000000000E+00+
*       4.5984740306E+00               0
GRID*               3179               0-3.196367418E+010.0000000000E+00+
*       4.8457399619E+00               0
GRID*               3180               0-3.123143759E+010.0000000000E+00+
*       4.4861494409E+00               0
GRID*               3181               0-3.143385761E+010.0000000000E+00+
*       4.7573294689E+00               0
GRID*               3182               0-3.074562379E+010.0000000000E+00+
*       4.3193689290E+00               0
GRID*               3183               0-3.091698275E+010.0000000000E+00+
*       4.6111709535E+00               0
GRID*               3184               0-3.028110615E+010.0000000000E+00+
*       4.1001578039E+00               0
GRID*               3185               0-3.041932438E+010.0000000000E+00+
*       4.4090394049E+00               0
GRID*               3186               0-2.984352166E+010.0000000000E+00+
*       3.8311763372E+00               0
GRID*               3187               0-2.994692211E+010.0000000000E+00+
*       4.1533884267E+00               0
GRID*               3188               0-2.943818370E+010.0000000000E+00+
*       3.5156885093E+00               0
GRID*               3189               0-2.950551023E+010.0000000000E+00+
*       3.8473203029E+00               0
GRID*               3190               0-2.907001247E+010.0000000000E+00+
*       3.1575256935E+00               0
GRID*               3191               0-2.910044793E+010.0000000000E+00+
*       3.4945507705E+00               0
GRID*               3192               0-2.874347709E+010.0000000000E+00+
*       2.7610352855E+00               0
GRID*               3193               0-2.873665218E+010.0000000000E+00+
*       3.0993628961E+00               0
GRID*               3194               0-2.846253883E+010.0000000000E+00+
*       2.3310292720E+00               0
GRID*               3195               0-2.841853751E+010.0000000000E+00+
*       2.6665529299E+00               0
GRID*               3196               0-2.823061180E+010.0000000000E+00+
*       1.8727263228E+00               0
GRID*               3197               0-2.814996611E+010.0000000000E+00+
*       2.2013734915E+00               0
GRID*               3198               0-2.805050957E+010.0000000000E+00+
*       1.3916940237E+00               0
GRID*               3199               0-2.793419947E+010.0000000000E+00+
*       1.7094735274E+00               0
GRID*               3200               0-2.792441563E+010.0000000000E+00+
*       8.9376738377E-01               0
GRID*               3201               0-2.777385435E+010.0000000000E+00+
*       1.1968240358E+00               0
GRID*               3202               0-2.785386430E+010.0000000000E+00+
*       3.8498927040E-01               0
GRID*               3203               0-2.767087743E+010.0000000000E+00+
*       6.6964443769E-01               0
GRID*               3204               0-2.783971217E+010.0000000000E+00+
*       -1.284600651E-01               0
GRID*               3205               0-2.762652087E+010.0000000000E+00+
*       1.3433611182E-01               0
GRID*               3206               0-2.788212788E+010.0000000000E+00+
*       -6.403503588E-01               0
GRID*               3207               0-2.764132162E+010.0000000000E+00+
*       -4.026017025E-01               0
GRID*               3208               0-2.798059998E+010.0000000000E+00+
*       -1.144467942E+00               0
GRID*               3209               0-2.771510011E+010.0000000000E+00+
*       -9.346528915E-01               0
GRID*               3210               0-2.813393042E+010.0000000000E+00+
*       -1.634692712E+00               0
GRID*               3211               0-2.784696112E+010.0000000000E+00+
*       -1.455358499E+00               0
GRID*               3212               0-2.834025946E+010.0000000000E+00+
*       -2.105074562E+00               0
GRID*               3213               0-2.803530337E+010.0000000000E+00+
*       -1.958397691E+00               0
GRID*               3214               0-2.859708148E+010.0000000000E+00+
*       -2.549903723E+00               0
GRID*               3215               0-2.827784088E+010.0000000000E+00+
*       -2.437664653E+00               0
GRID*               3216               0-2.890127960E+010.0000000000E+00+
*       -2.963780244E+00               0
GRID*               3217               0-2.857162929E+010.0000000000E+00+
*       -2.887341514E+00               0
GRID*               3218               0-2.924916140E+010.0000000000E+00+
*       -3.341682193E+00               0
GRID*               3219               0-2.891310291E+010.0000000000E+00+
*       -3.301970824E+00               0
GRID*               3220               0-2.963650537E+010.0000000000E+00+
*       -3.679018870E+00               0
GRID*               3221               0-2.929811747E+010.0000000000E+00+
*       -3.676518757E+00               0
GRID*               3222               0-3.005860605E+010.0000000000E+00+
*       -3.971697320E+00               0
GRID*               3223               0-2.972199792E+010.0000000000E+00+
*       -4.006437673E+00               0
GRID*               3224               0-3.051034313E+010.0000000000E+00+
*       -4.216165918E+00               0
GRID*               3225               0-3.017959898E+010.0000000000E+00+
*       -4.287724499E+00               0
GRID*               3226               0-3.098623263E+010.0000000000E+00+
*       -4.409455167E+00               0
GRID*               3227               0-3.066536777E+010.0000000000E+00+
*       -4.516964477E+00               0
GRID*               3228               0-3.148049624E+010.0000000000E+00+
*       -4.549219183E+00               0
GRID*               3229               0-3.117340626E+010.0000000000E+00+
*       -4.691373942E+00               0
GRID*               3230               0-3.198713488E+010.0000000000E+00+
*       -4.633762406E+00               0
GRID*               3231               0-3.169754693E+010.0000000000E+00+
*       -4.808836510E+00               0
GRID*               3232               0-3.223142874E+010.0000000000E+00+
*       -4.867926839E+00               0
GRID*               3233               03.7220752005E+010.0000000000E+00+
*       2.0750845262E+00               0
GRID*               3234               03.7417313813E+010.0000000000E+00+
*       1.6002175299E+00               0
GRID*               3235               03.7708143602E+010.0000000000E+00+
*       1.2965006022E+00               0
GRID*               3236               03.7344454642E+010.0000000000E+00+
*       1.3496206205E+00               0
GRID*               3237               03.7463848274E+010.0000000000E+00+
*       9.1099381453E-01               0
GRID*               3238               03.7534028082E+010.0000000000E+00+
*       4.1714272737E-01               0
GRID*               3239               03.7668753510E+010.0000000000E+00+
*       6.5849279083E-01               0
GRID*               3240               03.7504026775E+010.0000000000E+00+
*       -1.267849575E+00               0
GRID*               3241               03.7615324400E+010.0000000000E+00+
*       -7.684505829E-01               0
GRID*               3242               03.7364021648E+010.0000000000E+00+
*       -1.760916218E+00               0
GRID*               3243               03.7500375269E+010.0000000000E+00+
*       -5.338128731E-01               0
GRID*               3244               03.7850534797E+010.0000000000E+00+
*       -4.213546270E-01               0
GRID*               3245               03.7897564068E+010.0000000000E+00+
*       -1.732934736E-02               0
GRID*               3246               03.7687758547E+010.0000000000E+00+
*       -2.127215802E-01               0
GRID*               3247               03.5850730452E+010.0000000000E+00+
*       -3.887472198E+00               0
GRID*               3248               03.5739179175E+010.0000000000E+00+
*       -4.161509579E+00               0
GRID*               3249               03.6011504162E+010.0000000000E+00+
*       -4.107247648E+00               0
GRID*               3250               03.6123055439E+010.0000000000E+00+
*       -3.833210268E+00               0
GRID*               3251               03.5446350968E+010.0000000000E+00+
*       -4.202601448E+00               0
GRID*               3252               03.5327214481E+010.0000000000E+00+
*       -4.453622990E+00               0
GRID*               3253               03.5620042688E+010.0000000000E+00+
*       -4.412531122E+00               0
GRID*               3254               03.5975145503E+010.0000000000E+00+
*       -3.610150559E+00               0
GRID*               3255               03.6223740994E+010.0000000000E+00+
*       -3.542304685E+00               0
GRID*               3256               03.6335492284E+010.0000000000E+00+
*       -3.234125382E+00               0
GRID*               3257               03.5577466932E+010.0000000000E+00+
*       -3.953840095E+00               0
GRID*               3258               03.5146886403E+010.0000000000E+00+
*       -4.255198524E+00               0
GRID*               3259               03.4693439698E+010.0000000000E+00+
*       -4.511284787E+00               0
GRID*               3260               03.5019924953E+010.0000000000E+00+
*       -4.478759012E+00               0
GRID*               3261               03.4908865747E+010.0000000000E+00+
*       -4.700509482E+00               0
GRID*               3262               03.5216155275E+010.0000000000E+00+
*       -4.675373460E+00               0
GRID*               3263               03.5099715675E+010.0000000000E+00+
*       -4.908498334E+00               0
GRID*               3264               03.5507006091E+010.0000000000E+00+
*       -4.668407688E+00               0
GRID*               3265               03.5910199752E+010.0000000000E+00+
*       -4.381295808E+00               0
GRID*               3266               03.6287079582E+010.0000000000E+00+
*       -4.060261425E+00               0
GRID*               3267               03.6365428593E+010.0000000000E+00+
*       -3.779927865E+00               0
GRID*               3268               03.6620319528E+010.0000000000E+00+
*       -3.724473658E+00               0
GRID*               3269               03.6466114148E+010.0000000000E+00+
*       -3.489022282E+00               0
GRID*               3270               03.7402914798E+010.0000000000E+00+
*       -2.188927464E+00               0
GRID*               3271               03.7149565623E+010.0000000000E+00+
*       -1.917825183E+00               0
GRID*               3272               03.6883820684E+010.0000000000E+00+
*       -3.421169716E+00               0
GRID*               3273               03.6654416271E+010.0000000000E+00+
*       -3.478366122E+00               0
GRID*               3274               03.6972374255E+010.0000000000E+00+
*       -2.344794149E+00               0
GRID*               3275               03.6695962509E+010.0000000000E+00+
*       -2.828482152E+00               0
GRID*               3276               03.6946177501E+010.0000000000E+00+
*       -2.735611671E+00               0
GRID*               3277               0-3.682191425E+010.0000000000E+00+
*       -2.822887475E+00               0
GRID*               3278               0-3.652988006E+010.0000000000E+00+
*       -3.243007238E+00               0
GRID*               3279               0-3.627939906E+010.0000000000E+00+
*       -3.317353534E+00               0
GRID*               3280               0-3.643381239E+010.0000000000E+00+
*       -3.651141942E+00               0
GRID*               3281               0-3.616840873E+010.0000000000E+00+
*       -3.959383648E+00               0
GRID*               3282               0-3.617007063E+010.0000000000E+00+
*       -3.672687207E+00               0
GRID*               3283               0-3.417596446E+010.0000000000E+00+
*       -4.882486826E+00               0
GRID*               3284               0-3.465463542E+010.0000000000E+00+
*       -4.702676699E+00               0
GRID*               3285               0-3.507377616E+010.0000000000E+00+
*       -4.709888065E+00               0
GRID*               3286               0-3.478806485E+010.0000000000E+00+
*       -4.478178767E+00               0
GRID*               3287               0-3.519169501E+010.0000000000E+00+
*       -4.269008735E+00               0
GRID*               3288               0-3.560254347E+010.0000000000E+00+
*       -3.986179320E+00               0
GRID*               3289               0-3.551623611E+010.0000000000E+00+
*       -4.248750884E+00               0
GRID*               3290               0-3.197628778E+010.0000000000E+00+
*       -5.411362157E+00               0
GRID*               3291               0-3.222535164E+010.0000000000E+00+
*       -5.224736616E+00               0
GRID*               3292               0-3.248208586E+010.0000000000E+00+
*       -5.417189617E+00               0
GRID*               3293               0-3.145825114E+010.0000000000E+00+
*       -5.374151329E+00               0
GRID*               3294               0-3.170768043E+010.0000000000E+00+
*       -5.192942456E+00               0
GRID*               3295               0-3.092236186E+010.0000000000E+00+
*       -5.307100476E+00               0
GRID*               3296               0-3.117102823E+010.0000000000E+00+
*       -5.119106080E+00               0
GRID*               3297               0-3.090564398E+010.0000000000E+00+
*       -4.844803155E+00               0
GRID*               3298               0-3.143879051E+010.0000000000E+00+
*       -4.965676867E+00               0
GRID*               3299               0-3.196643685E+010.0000000000E+00+
*       -5.036102099E+00               0
GRID*               3300               0-3.249034354E+010.0000000000E+00+
*       -5.056561356E+00               0
GRID*               3301               0-3.368756879E+010.0000000000E+00+
*       -5.034693002E+00               0
GRID*               3302               0-3.344349672E+010.0000000000E+00+
*       -4.940165008E+00               0
GRID*               3303               0-3.335908307E+010.0000000000E+00+
*       -5.299348118E+00               0
GRID*               3304               0-3.295752951E+010.0000000000E+00+
*       -5.382008003E+00               0
GRID*               3305               0-3.313623006E+010.0000000000E+00+
*       -5.155395159E+00               0
GRID*               3306               03.3217404923E+010.0000000000E+00+
*       -4.977638398E+00               0
GRID*               3307               03.3012322851E+010.0000000000E+00+
*       -5.148306202E+00               0
GRID*               3308               03.3417539187E+010.0000000000E+00+
*       -5.289366453E+00               0
GRID*               3309               03.4740479416E+010.0000000000E+00+
*       -5.088597467E+00               0
GRID*               3310               03.4852584405E+010.0000000000E+00+
*       -4.880858886E+00               0
GRID*               3311               03.3834552168E+010.0000000000E+00+
*       -5.236373837E+00               0
GRID*               3312               03.3589757762E+010.0000000000E+00+
*       -5.079589005E+00               0
GRID*               3313               03.1573917160E+010.0000000000E+00+
*       -5.344878587E+00               0
GRID*               3314               03.1985615515E+010.0000000000E+00+
*       -5.162329851E+00               0
GRID*               3315               03.1778819957E+010.0000000000E+00+
*       -4.997883865E+00               0
GRID*               3316               03.1146100607E+010.0000000000E+00+
*       -5.328271192E+00               0
GRID*               3317               03.1399612838E+010.0000000000E+00+
*       -5.128904706E+00               0
GRID*               3318               03.2499177018E+010.0000000000E+00+
*       -5.166530236E+00               0
GRID*               3319               0-2.517820856E+010.0000000000E+00+
*       -3.700024580E+00               0
GRID*               3320               0-2.475733352E+010.0000000000E+00+
*       -3.614978128E+00               0
GRID*               3321               0-2.531226634E+010.0000000000E+00+
*       -3.279571301E+00               0
GRID*               3322               0-2.569197747E+010.0000000000E+00+
*       -2.775471661E+00               0
GRID*               3323               0-2.568256513E+010.0000000000E+00+
*       -3.233364386E+00               0
GRID*               3324               0-2.601576681E+010.0000000000E+00+
*       -2.313651712E+00               0
GRID*               3325               0-2.601321966E+010.0000000000E+00+
*       -2.697732089E+00               0
GRID*               3326               0-2.628557799E+010.0000000000E+00+
*       -1.832342638E+00               0
GRID*               3327               0-2.629900530E+010.0000000000E+00+
*       -2.233571886E+00               0
GRID*               3328               0-2.652656243E+010.0000000000E+00+
*       -1.319831036E+00               0
GRID*               3329               0-2.657328301E+010.0000000000E+00+
*       -1.757652003E+00               0
GRID*               3330               0-2.675357320E+010.0000000000E+00+
*       -7.183712481E-01               0
GRID*               3331               0-2.688087388E+010.0000000000E+00+
*       -1.189970114E+00               0
GRID*               3332               0-2.677589856E+010.0000000000E+00+
*       -3.611997760E-02               0
GRID*               3333               0-2.704918305E+010.0000000000E+00+
*       -4.698154935E-01               0
GRID*               3334               0-2.733512852E+010.0000000000E+00+
*       -1.033904703E-01               0
GRID*               3335               0-2.735537615E+010.0000000000E+00+
*       -7.690267258E-01               0
GRID*               3336               0-2.755596768E+010.0000000000E+00+
*       -1.366546696E+00               0
GRID*               3337               0-2.719624372E+010.0000000000E+00+
*       -1.200920530E+00               0
GRID*               3338               0-2.775469480E+010.0000000000E+00+
*       -1.876211121E+00               0
GRID*               3339               0-2.746370136E+010.0000000000E+00+
*       -1.787399318E+00               0
GRID*               3340               0-2.797381585E+010.0000000000E+00+
*       -2.368549569E+00               0
GRID*               3341               0-2.769320728E+010.0000000000E+00+
*       -2.286362999E+00               0
GRID*               3342               0-2.825341632E+010.0000000000E+00+
*       -2.867344258E+00               0
GRID*               3343               0-2.794939130E+010.0000000000E+00+
*       -2.798229174E+00               0
GRID*               3344               0-2.861089285E+010.0000000000E+00+
*       -3.308246912E+00               0
GRID*               3345               0-2.829267989E+010.0000000000E+00+
*       -3.288249656E+00               0
GRID*               3346               0-2.900219101E+010.0000000000E+00+
*       -3.684832613E+00               0
GRID*               3347               0-2.869998096E+010.0000000000E+00+
*       -3.691108701E+00               0
GRID*               3348               0-2.941026946E+010.0000000000E+00+
*       -4.012387513E+00               0
GRID*               3349               0-2.911434299E+010.0000000000E+00+
*       -4.020701369E+00               0
GRID*               3350               0-2.983365373E+010.0000000000E+00+
*       -4.312025619E+00               0
GRID*               3351               0-2.952192527E+010.0000000000E+00+
*       -4.317975459E+00               0
GRID*               3352               0-3.032351104E+010.0000000000E+00+
*       -4.658118603E+00               0
GRID*               3353               0-2.997756579E+010.0000000000E+00+
*       -4.682419724E+00               0
GRID*               3354               0-3.056378725E+010.0000000000E+00+
*       -4.985957281E+00               0
GRID*               3355               0-3.031443653E+010.0000000000E+00+
*       -5.197394259E+00               0
GRID*               3356               0-2.979848782E+010.0000000000E+00+
*       -5.298915958E+00               0
GRID*               3357               0-2.997351328E+010.0000000000E+00+
*       -4.986526797E+00               0
GRID*               3358               0-2.937379653E+010.0000000000E+00+
*       -5.373169268E+00               0
GRID*               3359               0-2.952384249E+010.0000000000E+00+
*       -5.125793145E+00               0
GRID*               3360               0-2.895884738E+010.0000000000E+00+
*       -5.365527041E+00               0
GRID*               3361               0-2.914150223E+010.0000000000E+00+
*       -5.170868804E+00               0
GRID*               3362               0-2.851017294E+010.0000000000E+00+
*       -5.313999455E+00               0
GRID*               3363               0-2.873643882E+010.0000000000E+00+
*       -5.125944893E+00               0
GRID*               3364               0-2.802113191E+010.0000000000E+00+
*       -5.239355685E+00               0
GRID*               3365               0-2.827860028E+010.0000000000E+00+
*       -5.035914920E+00               0
GRID*               3366               0-2.748130816E+010.0000000000E+00+
*       -5.156650759E+00               0
GRID*               3367               0-2.775378540E+010.0000000000E+00+
*       -4.917302851E+00               0
GRID*               3368               0-2.696573074E+010.0000000000E+00+
*       -5.235056535E+00               0
GRID*               3369               0-2.721001070E+010.0000000000E+00+
*       -4.918414784E+00               0
GRID*               3370               0-2.649181754E+010.0000000000E+00+
*       -5.256866096E+00               0
GRID*               3371               0-2.671852200E+010.0000000000E+00+
*       -5.000255860E+00               0
GRID*               3372               0-2.602071886E+010.0000000000E+00+
*       -5.243520394E+00               0
GRID*               3373               0-2.626061587E+010.0000000000E+00+
*       -5.004979946E+00               0
GRID*               3374               0-2.552249819E+010.0000000000E+00+
*       -5.206749171E+00               0
GRID*               3375               0-2.578391084E+010.0000000000E+00+
*       -4.964050002E+00               0
GRID*               3376               0-2.499136461E+010.0000000000E+00+
*       -5.229809347E+00               0
GRID*               3377               0-2.526109697E+010.0000000000E+00+
*       -4.951413220E+00               0
GRID*               3378               0-2.497408060E+010.0000000000E+00+
*       -4.693316711E+00               0
GRID*               3379               0-2.529972558E+010.0000000000E+00+
*       -4.339879310E+00               0
GRID*               3380               0-2.558674195E+010.0000000000E+00+
*       -4.597975820E+00               0
GRID*               3381               0-2.490654852E+010.0000000000E+00+
*       -4.140988904E+00               0
GRID*               3382               0-2.557138562E+010.0000000000E+00+
*       -3.898914986E+00               0
GRID*               3383               0-2.959087862E+010.0000000000E+00+
*       -4.894058370E+00               0
GRID*               3384               0-2.959493112E+010.0000000000E+00+
*       -4.589951296E+00               0
GRID*               3385               0-2.929941619E+010.0000000000E+00+
*       -4.602888704E+00               0
GRID*               3386               0-2.922641033E+010.0000000000E+00+
*       -4.330912867E+00               0
GRID*               3387               0-2.882106632E+010.0000000000E+00+
*       -4.063595839E+00               0
GRID*               3388               0-2.893313366E+010.0000000000E+00+
*       -4.373807337E+00               0
GRID*               3389               0-2.606524312E+010.0000000000E+00+
*       -4.765551834E+00               0
GRID*               3390               0-2.586807422E+010.0000000000E+00+
*       -4.399477652E+00               0
GRID*               3391               0-2.586125209E+010.0000000000E+00+
*       -4.115208234E+00               0
GRID*               3392               0-2.616322512E+010.0000000000E+00+
*       -4.104565364E+00               0
GRID*               3393               0-2.617004725E+010.0000000000E+00+
*       -4.388834782E+00               0
GRID*               3394               0-2.645341879E+010.0000000000E+00+
*       -4.062919488E+00               0
GRID*               3395               0-2.636922629E+010.0000000000E+00+
*       -4.232755499E+00               0
GRID*               3396               0-2.624741762E+010.0000000000E+00+
*       -3.934729353E+00               0
GRID*               3397               0-2.648952076E+010.0000000000E+00+
*       -4.405148909E+00               0
GRID*               3398               0-2.629034172E+010.0000000000E+00+
*       -4.561228192E+00               0
GRID*               3399               0-2.648571448E+010.0000000000E+00+
*       -4.800656304E+00               0
GRID*               3400               0-2.657392957E+010.0000000000E+00+
*       -3.842062516E+00               0
GRID*               3401               0-2.678364533E+010.0000000000E+00+
*       -3.982840760E+00               0
GRID*               3402               0-2.666313455E+010.0000000000E+00+
*       -4.203697733E+00               0
GRID*               3403               0-2.694655845E+010.0000000000E+00+
*       -3.710817300E+00               0
GRID*               3404               0-2.718632640E+010.0000000000E+00+
*       -3.896745905E+00               0
GRID*               3405               0-2.702341328E+010.0000000000E+00+
*       -4.168769366E+00               0
GRID*               3406               0-2.720573940E+010.0000000000E+00+
*       -4.348239837E+00               0
GRID*               3407               0-2.702618413E+010.0000000000E+00+
*       -4.557590082E+00               0
GRID*               3408               0-2.684385801E+010.0000000000E+00+
*       -4.378119611E+00               0
GRID*               3409               0-2.733314308E+010.0000000000E+00+
*       -4.696834521E+00               0
GRID*               3410               0-2.690305174E+010.0000000000E+00+
*       -4.779170345E+00               0
GRID*               3411               0-2.667024422E+010.0000000000E+00+
*       -4.579570788E+00               0
GRID*               3412               0-2.790750097E+010.0000000000E+00+
*       -3.315222830E+00               0
GRID*               3413               0-2.838283600E+010.0000000000E+00+
*       -3.743188452E+00               0
GRID*               3414               0-2.799765708E+010.0000000000E+00+
*       -3.770161626E+00               0
GRID*               3415               0-2.743540756E+010.0000000000E+00+
*       -4.215656874E+00               0
GRID*               3416               0-2.743809770E+010.0000000000E+00+
*       -3.602546462E+00               0
GRID*               3417               0-2.768717885E+010.0000000000E+00+
*       -3.921457431E+00               0
GRID*               3418               0-2.855875528E+010.0000000000E+00+
*       -4.876625385E+00               0
GRID*               3419               0-2.808771157E+010.0000000000E+00+
*       -4.732461635E+00               0
GRID*               3420               0-2.836786658E+010.0000000000E+00+
*       -4.573172100E+00               0
GRID*               3421               0-2.606258755E+010.0000000000E+00+
*       -3.767104957E+00               0
GRID*               3422               0-2.577272108E+010.0000000000E+00+
*       -3.550811709E+00               0
GRID*               3423               0-2.604755888E+010.0000000000E+00+
*       -3.052248314E+00               0
GRID*               3424               0-2.613771483E+010.0000000000E+00+
*       -3.369695637E+00               0
GRID*               3425               0-2.633407430E+010.0000000000E+00+
*       -2.611569510E+00               0
GRID*               3426               0-2.636841353E+010.0000000000E+00+
*       -2.966085735E+00               0
GRID*               3427               0-2.657111350E+010.0000000000E+00+
*       -2.169162266E+00               0
GRID*               3428               0-2.660618250E+010.0000000000E+00+
*       -2.547159889E+00               0
GRID*               3429               0-2.686021314E+010.0000000000E+00+
*       -1.736674795E+00               0
GRID*               3430               0-2.685804362E+010.0000000000E+00+
*       -2.148185058E+00               0
GRID*               3431               0-2.717558297E+010.0000000000E+00+
*       -1.747625212E+00               0
GRID*               3432               0-2.741718623E+010.0000000000E+00+
*       -2.205110110E+00               0
GRID*               3433               0-2.712906784E+010.0000000000E+00+
*       -2.165336004E+00               0
GRID*               3434               0-2.760899094E+010.0000000000E+00+
*       -2.697547398E+00               0
GRID*               3435               0-2.733296989E+010.0000000000E+00+
*       -2.616294509E+00               0
GRID*               3436               0-2.756710062E+010.0000000000E+00+
*       -3.214541054E+00               0
GRID*               3437               0-2.703269099E+010.0000000000E+00+
*       -3.349128676E+00               0
GRID*               3438               0-2.716169391E+010.0000000000E+00+
*       -2.961123268E+00               0
GRID*               3439               0-2.664540362E+010.0000000000E+00+
*       -3.599792776E+00               0
GRID*               3440               0-2.673153615E+010.0000000000E+00+
*       -3.238104153E+00               0
GRID*               3441               0-2.639401895E+010.0000000000E+00+
*       -3.295050294E+00               0
GRID*               3442               0-2.670593073E+010.0000000000E+00+
*       -2.909139594E+00               0
GRID*               3443               0-2.710204598E+010.0000000000E+00+
*       -2.489247696E+00               0
GRID*               3444               0-2.683102176E+010.0000000000E+00+
*       -2.472096750E+00               0
GRID*               3445               0-2.693077000E+010.0000000000E+00+
*       -2.834076455E+00               0
GRID*               3446               03.0953095706E+010.0000000000E+00+
*       -5.074236403E+00               0
GRID*               3447               03.0640727763E+010.0000000000E+00+
*       -5.271396860E+00               0
GRID*               3448               02.9441903035E+010.0000000000E+00+
*       -4.881367718E+00               0
GRID*               3449               02.9237560453E+010.0000000000E+00+
*       -4.655040349E+00               0
GRID*               3450               02.9055563306E+010.0000000000E+00+
*       -4.816747814E+00               0
GRID*               3451               02.9259905888E+010.0000000000E+00+
*       -5.043075184E+00               0
GRID*               3452               02.9023545710E+010.0000000000E+00+
*       -5.269777528E+00               0
GRID*               3453               02.9498177129E+010.0000000000E+00+
*       -5.282457490E+00               0
GRID*               3454               02.9803289642E+010.0000000000E+00+
*       -4.318350198E+00               0
GRID*               3455               02.9387233299E+010.0000000000E+00+
*       -4.037400174E+00               0
GRID*               3456               02.9468525025E+010.0000000000E+00+
*       -4.349312699E+00               0
GRID*               3457               02.9176257024E+010.0000000000E+00+
*       -4.411248418E+00               0
GRID*               3458               02.9529828454E+010.0000000000E+00+
*       -4.593104631E+00               0
GRID*               3459               02.9053343377E+010.0000000000E+00+
*       -4.079664135E+00               0
GRID*               3460               02.8964227552E+010.0000000000E+00+
*       -3.718782718E+00               0
GRID*               3461               02.8544848262E+010.0000000000E+00+
*       -3.333388944E+00               0
GRID*               3462               02.8595972907E+010.0000000000E+00+
*       -3.750200838E+00               0
GRID*               3463               02.8151651033E+010.0000000000E+00+
*       -2.844236373E+00               0
GRID*               3464               02.8124870006E+010.0000000000E+00+
*       -3.290283803E+00               0
GRID*               3465               02.7936203732E+010.0000000000E+00+
*       -2.289409376E+00               0
GRID*               3466               02.7810013883E+010.0000000000E+00+
*       -2.695981096E+00               0
GRID*               3467               02.7520027215E+010.0000000000E+00+
*       -2.410111848E+00               0
GRID*               3468               02.7319377123E+010.0000000000E+00+
*       -2.683017446E+00               0
GRID*               3469               02.7609363790E+010.0000000000E+00+
*       -2.968886694E+00               0
GRID*               3470               02.7109398156E+010.0000000000E+00+
*       -2.416322144E+00               0
GRID*               3471               02.6899521944E+010.0000000000E+00+
*       -2.627386344E+00               0
GRID*               3472               02.7109500912E+010.0000000000E+00+
*       -2.894081645E+00               0
GRID*               3473               02.6681013184E+010.0000000000E+00+
*       -2.343728749E+00               0
GRID*               3474               02.6459392518E+010.0000000000E+00+
*       -2.578557458E+00               0
GRID*               3475               02.6677901278E+010.0000000000E+00+
*       -2.862215052E+00               0
GRID*               3476               02.6159894277E+010.0000000000E+00+
*       -2.231927181E+00               0
GRID*               3477               02.5949477690E+010.0000000000E+00+
*       -2.542594696E+00               0
GRID*               3478               02.6248975931E+010.0000000000E+00+
*       -2.889224973E+00               0
GRID*               3479               02.5587464417E+010.0000000000E+00+
*       -2.876996150E+00               0
GRID*               3480               02.5842417486E+010.0000000000E+00+
*       -3.028199561E+00               0
GRID*               3481               02.5199035065E+010.0000000000E+00+
*       -3.223014739E+00               0
GRID*               3482               02.5464820806E+010.0000000000E+00+
*       -3.278332312E+00               0
GRID*               3483               02.4749787208E+010.0000000000E+00+
*       -3.575807541E+00               0
GRID*               3484               02.5057430969E+010.0000000000E+00+
*       -3.604297431E+00               0
GRID*               3485               02.4227169416E+010.0000000000E+00+
*       -3.843893043E+00               0
GRID*               3486               02.4564534552E+010.0000000000E+00+
*       -3.917361026E+00               0
GRID*               3487               02.3689427505E+010.0000000000E+00+
*       -4.030284369E+00               0
GRID*               3488               02.4022075360E+010.0000000000E+00+
*       -4.135320471E+00               0
GRID*               3489               02.3809104027E+010.0000000000E+00+
*       -4.427302543E+00               0
GRID*               3490               02.4139816183E+010.0000000000E+00+
*       -4.569866879E+00               0
GRID*               3491               02.4352787517E+010.0000000000E+00+
*       -4.277884808E+00               0
GRID*               3492               02.3901198399E+010.0000000000E+00+
*       -4.853348682E+00               0
GRID*               3493               02.4198646930E+010.0000000000E+00+
*       -5.041459312E+00               0
GRID*               3494               02.4437264715E+010.0000000000E+00+
*       -4.757977510E+00               0
GRID*               3495               02.3955581784E+010.0000000000E+00+
*       -5.303446119E+00               0
GRID*               3496               02.4473386193E+010.0000000000E+00+
*       -5.257550318E+00               0
GRID*               3497               02.5012911675E+010.0000000000E+00+
*       -5.211940421E+00               0
GRID*               3498               02.4740926661E+010.0000000000E+00+
*       -4.974763106E+00               0
GRID*               3499               02.5534987637E+010.0000000000E+00+
*       -5.221461369E+00               0
GRID*               3500               02.5286294688E+010.0000000000E+00+
*       -4.950253593E+00               0
GRID*               3501               02.6028992166E+010.0000000000E+00+
*       -5.236042815E+00               0
GRID*               3502               02.5796895979E+010.0000000000E+00+
*       -4.971503482E+00               0
GRID*               3503               02.6510469730E+010.0000000000E+00+
*       -5.237988730E+00               0
GRID*               3504               02.6277913872E+010.0000000000E+00+
*       -4.984935529E+00               0
GRID*               3505               02.6993443445E+010.0000000000E+00+
*       -5.224598234E+00               0
GRID*               3506               02.6751533557E+010.0000000000E+00+
*       -4.977241634E+00               0
GRID*               3507               02.7490007616E+010.0000000000E+00+
*       -5.199314075E+00               0
GRID*               3508               02.7235978472E+010.0000000000E+00+
*       -4.948838750E+00               0
GRID*               3509               02.8009561974E+010.0000000000E+00+
*       -5.179697701E+00               0
GRID*               3510               02.7747728771E+010.0000000000E+00+
*       -4.913127117E+00               0
GRID*               3511               02.8531142635E+010.0000000000E+00+
*       -5.222616067E+00               0
GRID*               3512               02.8278899907E+010.0000000000E+00+
*       -4.929282887E+00               0
GRID*               3513               02.8788744602E+010.0000000000E+00+
*       -4.997415835E+00               0
GRID*               3514               02.8849953957E+010.0000000000E+00+
*       -4.515476350E+00               0
GRID*               3515               02.8583135253E+010.0000000000E+00+
*       -4.696144371E+00               0
GRID*               3516               02.8727040310E+010.0000000000E+00+
*       -4.183892067E+00               0
GRID*               3517               02.8315313850E+010.0000000000E+00+
*       -4.308211239E+00               0
GRID*               3518               02.8184246447E+010.0000000000E+00+
*       -3.874520010E+00               0
GRID*               3519               02.7756488007E+010.0000000000E+00+
*       -3.318579667E+00               0
GRID*               3520               02.7815864449E+010.0000000000E+00+
*       -3.902815874E+00               0
GRID*               3521               02.7282760366E+010.0000000000E+00+
*       -3.144152545E+00               0
GRID*               3522               02.7429884584E+010.0000000000E+00+
*       -3.493845519E+00               0
GRID*               3523               02.6877408817E+010.0000000000E+00+
*       -3.087845235E+00               0
GRID*               3524               02.7050668272E+010.0000000000E+00+
*       -3.337916135E+00               0
GRID*               3525               02.6476320210E+010.0000000000E+00+
*       -3.083688428E+00               0
GRID*               3526               02.6675827750E+010.0000000000E+00+
*       -3.309318611E+00               0
GRID*               3527               02.6077663363E+010.0000000000E+00+
*       -3.146949325E+00               0
GRID*               3528               02.6305007642E+010.0000000000E+00+
*       -3.341412781E+00               0
GRID*               3529               02.5720311580E+010.0000000000E+00+
*       -3.318521998E+00               0
GRID*               3530               02.5955557456E+010.0000000000E+00+
*       -3.437271761E+00               0
GRID*               3531               02.5386447150E+010.0000000000E+00+
*       -3.599673497E+00               0
GRID*               3532               02.5641937924E+010.0000000000E+00+
*       -3.639863182E+00               0
GRID*               3533               02.4958485396E+010.0000000000E+00+
*       -4.038145303E+00               0
GRID*               3534               02.5287501578E+010.0000000000E+00+
*       -4.033521368E+00               0
GRID*               3535               02.4746738361E+010.0000000000E+00+
*       -4.398669084E+00               0
GRID*               3536               02.5050400308E+010.0000000000E+00+
*       -4.615454681E+00               0
GRID*               3537               02.5592179054E+010.0000000000E+00+
*       -4.699156536E+00               0
GRID*               3538               02.5356284673E+010.0000000000E+00+
*       -4.364357624E+00               0
GRID*               3539               02.6063562619E+010.0000000000E+00+
*       -4.741311424E+00               0
GRID*               3540               02.5858845694E+010.0000000000E+00+
*       -4.468964478E+00               0
GRID*               3541               02.6517018426E+010.0000000000E+00+
*       -4.747362635E+00               0
GRID*               3542               02.6302667173E+010.0000000000E+00+
*       -4.503738530E+00               0
GRID*               3543               02.6974719582E+010.0000000000E+00+
*       -4.720907247E+00               0
GRID*               3544               02.6740204451E+010.0000000000E+00+
*       -4.491028247E+00               0
GRID*               3545               02.7456998912E+010.0000000000E+00+
*       -4.657765704E+00               0
GRID*               3546               02.7195740023E+010.0000000000E+00+
*       -4.429834200E+00               0
GRID*               3547               02.8011078504E+010.0000000000E+00+
*       -4.541349756E+00               0
GRID*               3548               02.7720348645E+010.0000000000E+00+
*       -4.285988342E+00               0
GRID*               3549               02.6497318758E+010.0000000000E+00+
*       -3.503545651E+00               0
GRID*               3550               02.6151855278E+010.0000000000E+00+
*       -3.546884526E+00               0
GRID*               3551               02.6344166394E+010.0000000000E+00+
*       -3.709017396E+00               0
GRID*               3552               02.6164465743E+010.0000000000E+00+
*       -3.897425698E+00               0
GRID*               3553               02.6332836297E+010.0000000000E+00+
*       -4.074363530E+00               0
GRID*               3554               02.6512536948E+010.0000000000E+00+
*       -3.885955227E+00               0
GRID*               3555               02.6519210876E+010.0000000000E+00+
*       -4.292024086E+00               0
GRID*               3556               02.6116292595E+010.0000000000E+00+
*       -4.286077973E+00               0
GRID*               3557               02.5715093461E+010.0000000000E+00+
*       -4.221099950E+00               0
GRID*               3558               02.5646310365E+010.0000000000E+00+
*       -3.890263694E+00               0
GRID*               3559               02.5972540361E+010.0000000000E+00+
*       -4.038213445E+00               0
GRID*               3560               02.7353342527E+010.0000000000E+00+
*       -4.157759343E+00               0
GRID*               3561               02.7448858331E+010.0000000000E+00+
*       -3.774586876E+00               0
GRID*               3562               02.7175462046E+010.0000000000E+00+
*       -3.513304815E+00               0
GRID*               3563               02.7194435793E+010.0000000000E+00+
*       -3.794046172E+00               0
GRID*               3564               02.6851054315E+010.0000000000E+00+
*       -3.490762352E+00               0
GRID*               3565               02.6975848089E+010.0000000000E+00+
*       -3.666151031E+00               0
GRID*               3566               02.6869021868E+010.0000000000E+00+
*       -3.855120372E+00               0
GRID*               3567               02.7087609572E+010.0000000000E+00+
*       -3.983015513E+00               0
GRID*               3568               02.6930007068E+010.0000000000E+00+
*       -4.255090370E+00               0
GRID*               3569               02.6672545323E+010.0000000000E+00+
*       -3.684989391E+00               0
GRID*               3570               02.6709013493E+010.0000000000E+00+
*       -4.056086209E+00               0
GRID*               3571               02.3487698671E+010.0000000000E+00+
*       -4.286344947E+00               0
GRID*               3572               02.3146514845E+010.0000000000E+00+
*       -4.155400098E+00               0
GRID*               3573               02.2611454311E+010.0000000000E+00+
*       -4.262630110E+00               0
GRID*               3574               02.2946557612E+010.0000000000E+00+
*       -4.439418026E+00               0
GRID*               3575               02.2025896482E+010.0000000000E+00+
*       -4.256346184E+00               0
GRID*               3576               02.2360626282E+010.0000000000E+00+
*       -4.520484145E+00               0
GRID*               3577               02.1509539926E+010.0000000000E+00+
*       -4.252890461E+00               0
GRID*               3578               02.1785436408E+010.0000000000E+00+
*       -4.509314866E+00               0
GRID*               3579               02.1003855064E+010.0000000000E+00+
*       -4.251255843E+00               0
GRID*               3580               02.1263394990E+010.0000000000E+00+
*       -4.504146304E+00               0
GRID*               3581               02.0501617954E+010.0000000000E+00+
*       -4.250530717E+00               0
GRID*               3582               02.0755473018E+010.0000000000E+00+
*       -4.501786561E+00               0
GRID*               3583               02.0000683108E+010.0000000000E+00+
*       -4.250221145E+00               0
GRID*               3584               02.0252301062E+010.0000000000E+00+
*       -4.500751862E+00               0
GRID*               3585               01.9500285938E+010.0000000000E+00+
*       -4.250091254E+00               0
GRID*               3586               01.9750969046E+010.0000000000E+00+
*       -4.500312399E+00               0
GRID*               3587               01.9000118084E+010.0000000000E+00+
*       -4.250037191E+00               0
GRID*               3588               01.9250404022E+010.0000000000E+00+
*       -4.500128445E+00               0
GRID*               3589               01.8500048071E+010.0000000000E+00+
*       -4.250014965E+00               0
GRID*               3590               01.8750166155E+010.0000000000E+00+
*       -4.500052156E+00               0
GRID*               3591               01.8000019322E+010.0000000000E+00+
*       -4.250005947E+00               0
GRID*               3592               01.8250067393E+010.0000000000E+00+
*       -4.500020911E+00               0
GRID*               3593               01.7500007691E+010.0000000000E+00+
*       -4.250002333E+00               0
GRID*               3594               01.7750027014E+010.0000000000E+00+
*       -4.500008280E+00               0
GRID*               3595               01.7000003045E+010.0000000000E+00+
*       -4.250000902E+00               0
GRID*               3596               01.7250010736E+010.0000000000E+00+
*       -4.500003236E+00               0
GRID*               3597               01.6500001207E+010.0000000000E+00+
*       -4.250000342E+00               0
GRID*               3598               01.6750004252E+010.0000000000E+00+
*       -4.500001245E+00               0
GRID*               3599               01.6000000484E+010.0000000000E+00+
*       -4.250000126E+00               0
GRID*               3600               01.6250001690E+010.0000000000E+00+
*       -4.500000469E+00               0
GRID*               3601               01.5500000199E+010.0000000000E+00+
*       -4.250000045E+00               0
GRID*               3602               01.5750000683E+010.0000000000E+00+
*       -4.500000171E+00               0
GRID*               3603               01.5000000086E+010.0000000000E+00+
*       -4.250000014E+00               0
GRID*               3604               01.5250000285E+010.0000000000E+00+
*       -4.500000059E+00               0
GRID*               3605               01.4500000040E+010.0000000000E+00+
*       -4.250000004E+00               0
GRID*               3606               01.4750000126E+010.0000000000E+00+
*       -4.500000018E+00               0
GRID*               3607               01.4000000020E+010.0000000000E+00+
*       -4.250000000E+00               0
GRID*               3608               01.4250000060E+010.0000000000E+00+
*       -4.500000004E+00               0
GRID*               3609               01.3500000011E+010.0000000000E+00+
*       -4.250000000E+00               0
GRID*               3610               01.3750000031E+010.0000000000E+00+
*       -4.500000000E+00               0
GRID*               3611               01.3000000006E+010.0000000000E+00+
*       -4.249999999E+00               0
GRID*               3612               01.3250000017E+010.0000000000E+00+
*       -4.499999999E+00               0
GRID*               3613               01.2500000004E+010.0000000000E+00+
*       -4.250000000E+00               0
GRID*               3614               01.2750000010E+010.0000000000E+00+
*       -4.499999999E+00               0
GRID*               3615               01.2000000002E+010.0000000000E+00+
*       -4.250000000E+00               0
GRID*               3616               01.2250000006E+010.0000000000E+00+
*       -4.499999999E+00               0
GRID*               3617               01.1500000001E+010.0000000000E+00+
*       -4.250000000E+00               0
GRID*               3618               01.1750000003E+010.0000000000E+00+
*       -4.500000000E+00               0
GRID*               3619               01.1000000001E+010.0000000000E+00+
*       -4.250000000E+00               0
GRID*               3620               01.1250000002E+010.0000000000E+00+
*       -4.500000000E+00               0
GRID*               3621               01.0500000000E+010.0000000000E+00+
*       -4.250000000E+00               0
GRID*               3622               01.0750000001E+010.0000000000E+00+
*       -4.500000000E+00               0
GRID*               3623               01.0000000000E+010.0000000000E+00+
*       -4.250000000E+00               0
GRID*               3624               01.0250000001E+010.0000000000E+00+
*       -4.500000000E+00               0
GRID*               3625               09.5000000001E+000.0000000000E+00+
*       -4.250000000E+00               0
GRID*               3626               09.7500000004E+000.0000000000E+00+
*       -4.500000000E+00               0
GRID*               3627               09.0000000001E+000.0000000000E+00+
*       -4.250000000E+00               0
GRID*               3628               09.2500000002E+000.0000000000E+00+
*       -4.500000000E+00               0
GRID*               3629               08.5000000000E+000.0000000000E+00+
*       -4.250000000E+00               0
GRID*               3630               08.7500000001E+000.0000000000E+00+
*       -4.500000000E+00               0
GRID*               3631               08.0000000000E+000.0000000000E+00+
*       -4.250000000E+00               0
GRID*               3632               08.2500000001E+000.0000000000E+00+
*       -4.500000000E+00               0
GRID*               3633               07.5000000000E+000.0000000000E+00+
*       -4.250000000E+00               0
GRID*               3634               07.7500000000E+000.0000000000E+00+
*       -4.500000000E+00               0
GRID*               3635               07.0000000000E+000.0000000000E+00+
*       -4.250000000E+00               0
GRID*               3636               07.2500000000E+000.0000000000E+00+
*       -4.500000000E+00               0
GRID*               3637               06.5000000000E+000.0000000000E+00+
*       -4.250000000E+00               0
GRID*               3638               06.7500000000E+000.0000000000E+00+
*       -4.500000000E+00               0
GRID*               3639               06.0000000000E+000.0000000000E+00+
*       -4.250000000E+00               0
GRID*               3640               06.2500000000E+000.0000000000E+00+
*       -4.500000000E+00               0
GRID*               3641               05.5000000000E+000.0000000000E+00+
*       -4.250000000E+00               0
GRID*               3642               05.7500000000E+000.0000000000E+00+
*       -4.500000000E+00               0
GRID*               3643               05.0000000000E+000.0000000000E+00+
*       -4.250000000E+00               0
GRID*               3644               05.2500000000E+000.0000000000E+00+
*       -4.500000000E+00               0
GRID*               3645               04.5000000000E+000.0000000000E+00+
*       -4.250000000E+00               0
GRID*               3646               04.7500000000E+000.0000000000E+00+
*       -4.500000000E+00               0
GRID*               3647               04.0000000000E+000.0000000000E+00+
*       -4.250000000E+00               0
GRID*               3648               04.2500000000E+000.0000000000E+00+
*       -4.500000000E+00               0
GRID*               3649               03.5000000000E+000.0000000000E+00+
*       -4.250000000E+00               0
GRID*               3650               03.7500000000E+000.0000000000E+00+
*       -4.500000000E+00               0
GRID*               3651               03.0000000000E+000.0000000000E+00+
*       -4.250000000E+00               0
GRID*               3652               03.2500000000E+000.0000000000E+00+
*       -4.500000000E+00               0
GRID*               3653               02.5000000000E+000.0000000000E+00+
*       -4.250000000E+00               0
GRID*               3654               02.7500000000E+000.0000000000E+00+
*       -4.500000000E+00               0
GRID*               3655               02.0000000000E+000.0000000000E+00+
*       -4.250000000E+00               0
GRID*               3656               02.2500000000E+000.0000000000E+00+
*       -4.500000000E+00               0
GRID*               3657               01.5000000000E+000.0000000000E+00+
*       -4.250000000E+00               0
GRID*               3658               01.7500000000E+000.0000000000E+00+
*       -4.500000000E+00               0
GRID*               3659               01.0000000000E+000.0000000000E+00+
*       -4.250000000E+00               0
GRID*               3660               01.2500000000E+000.0000000000E+00+
*       -4.500000000E+00               0
GRID*               3661               05.0000000000E-010.0000000000E+00+
*       -4.250000000E+00               0
GRID*               3662               07.5000000000E-010.0000000000E+00+
*       -4.500000000E+00               0
GRID*               3663               02.6645352591E-150.0000000000E+00+
*       -4.250000000E+00               0
GRID*               3664               02.5000000000E-010.0000000000E+00+
*       -4.500000000E+00               0
GRID*               3665               0-5.000000000E-010.0000000000E+00+
*       -4.250000000E+00               0
GRID*               3666               0-2.500000000E-010.0000000000E+00+
*       -4.500000000E+00               0
GRID*               3667               0-1.000000000E+000.0000000000E+00+
*       -4.250000000E+00               0
GRID*               3668               0-7.500000000E-010.0000000000E+00+
*       -4.500000000E+00               0
GRID*               3669               0-1.500000000E+000.0000000000E+00+
*       -4.250000000E+00               0
GRID*               3670               0-1.250000000E+000.0000000000E+00+
*       -4.500000000E+00               0
GRID*               3671               0-2.000000000E+000.0000000000E+00+
*       -4.250000000E+00               0
GRID*               3672               0-1.750000000E+000.0000000000E+00+
*       -4.500000000E+00               0
GRID*               3673               0-2.500000000E+000.0000000000E+00+
*       -4.250000000E+00               0
GRID*               3674               0-2.250000000E+000.0000000000E+00+
*       -4.500000000E+00               0
GRID*               3675               0-3.000000000E+000.0000000000E+00+
*       -4.250000000E+00               0
GRID*               3676               0-2.750000000E+000.0000000000E+00+
*       -4.500000000E+00               0
GRID*               3677               0-3.500000000E+000.0000000000E+00+
*       -4.250000000E+00               0
GRID*               3678               0-3.250000000E+000.0000000000E+00+
*       -4.500000000E+00               0
GRID*               3679               0-4.000000000E+000.0000000000E+00+
*       -4.250000000E+00               0
GRID*               3680               0-3.750000000E+000.0000000000E+00+
*       -4.500000000E+00               0
GRID*               3681               0-4.500000000E+000.0000000000E+00+
*       -4.250000000E+00               0
GRID*               3682               0-4.250000000E+000.0000000000E+00+
*       -4.500000000E+00               0
GRID*               3683               0-5.000000000E+000.0000000000E+00+
*       -4.250000000E+00               0
GRID*               3684               0-4.750000000E+000.0000000000E+00+
*       -4.500000000E+00               0
GRID*               3685               0-5.500000000E+000.0000000000E+00+
*       -4.250000000E+00               0
GRID*               3686               0-5.250000000E+000.0000000000E+00+
*       -4.500000000E+00               0
GRID*               3687               0-6.000000000E+000.0000000000E+00+
*       -4.250000000E+00               0
GRID*               3688               0-5.750000000E+000.0000000000E+00+
*       -4.500000000E+00               0
GRID*               3689               0-6.500000000E+000.0000000000E+00+
*       -4.250000000E+00               0
GRID*               3690               0-6.250000000E+000.0000000000E+00+
*       -4.500000000E+00               0
GRID*               3691               0-7.000000000E+000.0000000000E+00+
*       -4.250000000E+00               0
GRID*               3692               0-6.750000000E+000.0000000000E+00+
*       -4.500000000E+00               0
GRID*               3693               0-7.500000000E+000.0000000000E+00+
*       -4.250000000E+00               0
GRID*               3694               0-7.250000000E+000.0000000000E+00+
*       -4.500000000E+00               0
GRID*               3695               0-8.000000000E+000.0000000000E+00+
*       -4.250000000E+00               0
GRID*               3696               0-7.750000000E+000.0000000000E+00+
*       -4.500000000E+00               0
GRID*               3697               0-8.500000000E+000.0000000000E+00+
*       -4.250000000E+00               0
GRID*               3698               0-8.250000000E+000.0000000000E+00+
*       -4.500000000E+00               0
GRID*               3699               0-9.000000000E+000.0000000000E+00+
*       -4.250000000E+00               0
GRID*               3700               0-8.750000000E+000.0000000000E+00+
*       -4.500000000E+00               0
GRID*               3701               0-9.500000000E+000.0000000000E+00+
*       -4.250000000E+00               0
GRID*               3702               0-9.250000000E+000.0000000000E+00+
*       -4.500000000E+00               0
GRID*               3703               0-1.000000000E+010.0000000000E+00+
*       -4.250000000E+00               0
GRID*               3704               0-9.750000000E+000.0000000000E+00+
*       -4.500000000E+00               0
GRID*               3705               0-1.050000000E+010.0000000000E+00+
*       -4.250000000E+00               0
GRID*               3706               0-1.025000000E+010.0000000000E+00+
*       -4.500000000E+00               0
GRID*               3707               0-1.100000000E+010.0000000000E+00+
*       -4.250000000E+00               0
GRID*               3708               0-1.075000000E+010.0000000000E+00+
*       -4.500000000E+00               0
GRID*               3709               0-1.150000000E+010.0000000000E+00+
*       -4.250000000E+00               0
GRID*               3710               0-1.125000000E+010.0000000000E+00+
*       -4.500000000E+00               0
GRID*               3711               0-1.200000000E+010.0000000000E+00+
*       -4.250000000E+00               0
GRID*               3712               0-1.175000000E+010.0000000000E+00+
*       -4.500000000E+00               0
GRID*               3713               0-1.250000000E+010.0000000000E+00+
*       -4.250000000E+00               0
GRID*               3714               0-1.225000000E+010.0000000000E+00+
*       -4.500000001E+00               0
GRID*               3715               0-1.300000000E+010.0000000000E+00+
*       -4.250000001E+00               0
GRID*               3716               0-1.275000000E+010.0000000000E+00+
*       -4.500000001E+00               0
GRID*               3717               0-1.350000000E+010.0000000000E+00+
*       -4.250000001E+00               0
GRID*               3718               0-1.325000000E+010.0000000000E+00+
*       -4.500000002E+00               0
GRID*               3719               0-1.400000000E+010.0000000000E+00+
*       -4.250000002E+00               0
GRID*               3720               0-1.375000000E+010.0000000000E+00+
*       -4.500000003E+00               0
GRID*               3721               0-1.450000001E+010.0000000000E+00+
*       -4.250000003E+00               0
GRID*               3722               0-1.425000001E+010.0000000000E+00+
*       -4.500000005E+00               0
GRID*               3723               0-1.500000004E+010.0000000000E+00+
*       -4.250000007E+00               0
GRID*               3724               0-1.475000005E+010.0000000000E+00+
*       -4.500000010E+00               0
GRID*               3725               0-1.550000010E+010.0000000000E+00+
*       -4.250000015E+00               0
GRID*               3726               0-1.525000014E+010.0000000000E+00+
*       -4.500000022E+00               0
GRID*               3727               0-1.600000028E+010.0000000000E+00+
*       -4.250000034E+00               0
GRID*               3728               0-1.575000039E+010.0000000000E+00+
*       -4.500000049E+00               0
GRID*               3729               0-1.650000073E+010.0000000000E+00+
*       -4.250000083E+00               0
GRID*               3730               0-1.625000101E+010.0000000000E+00+
*       -4.500000118E+00               0
GRID*               3731               0-1.700000185E+010.0000000000E+00+
*       -4.250000206E+00               0
GRID*               3732               0-1.675000258E+010.0000000000E+00+
*       -4.500000290E+00               0
GRID*               3733               0-1.750000457E+010.0000000000E+00+
*       -4.250000518E+00               0
GRID*               3734               0-1.725000642E+010.0000000000E+00+
*       -4.500000724E+00               0
GRID*               3735               0-1.800001112E+010.0000000000E+00+
*       -4.250001301E+00               0
GRID*               3736               0-1.775001569E+010.0000000000E+00+
*       -4.500001819E+00               0
GRID*               3737               0-1.850002661E+010.0000000000E+00+
*       -4.250003249E+00               0
GRID*               3738               0-1.825003773E+010.0000000000E+00+
*       -4.500004551E+00               0
GRID*               3739               0-1.900006262E+010.0000000000E+00+
*       -4.250008028E+00               0
GRID*               3740               0-1.875008923E+010.0000000000E+00+
*       -4.500011277E+00               0
GRID*               3741               0-1.950014421E+010.0000000000E+00+
*       -4.250019508E+00               0
GRID*               3742               0-1.925020683E+010.0000000000E+00+
*       -4.500027536E+00               0
GRID*               3743               0-2.000032626E+010.0000000000E+00+
*       -4.250045827E+00               0
GRID*               3744               0-1.975047047E+010.0000000000E+00+
*       -4.500065335E+00               0
GRID*               3745               0-2.050073129E+010.0000000000E+00+
*       -4.250101750E+00               0
GRID*               3746               0-2.025105755E+010.0000000000E+00+
*       -4.500147576E+00               0
GRID*               3747               0-2.100164334E+010.0000000000E+00+
*       -4.250212151E+00               0
GRID*               3748               0-2.075237463E+010.0000000000E+00+
*       -4.500313901E+00               0
GRID*               3749               0-2.150377149E+010.0000000000E+00+
*       -4.250402427E+00               0
GRID*               3750               0-2.125541483E+010.0000000000E+00+
*       -4.500614578E+00               0
GRID*               3751               0-2.200910322E+010.0000000000E+00+
*       -4.250522459E+00               0
GRID*               3752               0-2.176287471E+010.0000000000E+00+
*       -4.501003107E+00               0
GRID*               3753               0-2.251535299E+010.0000000000E+00+
*       -4.249988146E+00               0
GRID*               3754               0-2.228337954E+010.0000000000E+00+
*       -4.500745270E+00               0
GRID*               3755               0-2.312578359E+010.0000000000E+00+
*       -4.224526280E+00               0
GRID*               3756               0-2.286537287E+010.0000000000E+00+
*       -4.494629058E+00               0
GRID*               3757               0-2.369171723E+010.0000000000E+00+
*       -4.049687817E+00               0
GRID*               3758               0-2.346925714E+010.0000000000E+00+
*       -4.374874577E+00               0
GRID*               3759               0-2.422644051E+010.0000000000E+00+
*       -3.861553636E+00               0
GRID*               3760               0-2.402363618E+010.0000000000E+00+
*       -4.172384512E+00               0
GRID*               3761               0-2.457135196E+010.0000000000E+00+
*       -3.974192206E+00               0
GRID*               3762               0-2.468124641E+010.0000000000E+00+
*       -4.483187634E+00               0
GRID*               3763               0-2.434604986E+010.0000000000E+00+
*       -4.316390935E+00               0
GRID*               3764               0-2.472295345E+010.0000000000E+00+
*       -4.998672564E+00               0
GRID*               3765               0-2.443011926E+010.0000000000E+00+
*       -4.788543487E+00               0
GRID*               3766               0-2.447271056E+010.0000000000E+00+
*       -5.270602887E+00               0
GRID*               3767               0-2.397715949E+010.0000000000E+00+
*       -5.306677443E+00               0
GRID*               3768               0-2.421209591E+010.0000000000E+00+
*       -5.054211928E+00               0
GRID*               3769               0-2.350739607E+010.0000000000E+00+
*       -5.320297815E+00               0
GRID*               3770               0-2.373730812E+010.0000000000E+00+
*       -5.090795847E+00               0
GRID*               3771               0-2.304037024E+010.0000000000E+00+
*       -5.274312389E+00               0
GRID*               3772               0-2.328466145E+010.0000000000E+00+
*       -5.065689328E+00               0
GRID*               3773               0-2.252610389E+010.0000000000E+00+
*       -5.259108465E+00               0
GRID*               3774               0-2.279768546E+010.0000000000E+00+
*       -5.020123044E+00               0
GRID*               3775               0-2.201401560E+010.0000000000E+00+
*       -5.253670043E+00               0
GRID*               3776               0-2.227680027E+010.0000000000E+00+
*       -5.007201490E+00               0
GRID*               3777               0-2.150704109E+010.0000000000E+00+
*       -5.251553211E+00               0
GRID*               3778               0-2.176338841E+010.0000000000E+00+
*       -5.002905202E+00               0
GRID*               3779               0-2.100342106E+010.0000000000E+00+
*       -5.250673924E+00               0
GRID*               3780               0-2.125644607E+010.0000000000E+00+
*       -5.001250533E+00               0
GRID*               3781               0-2.050162560E+010.0000000000E+00+
*       -5.250294641E+00               0
GRID*               3782               0-2.075305102E+010.0000000000E+00+
*       -5.000551624E+00               0
GRID*               3783               0-2.000075817E+010.0000000000E+00+
*       -5.250128200E+00               0
GRID*               3784               0-2.025142561E+010.0000000000E+00+
*       -5.000243887E+00               0
GRID*               3785               0-1.950034733E+010.0000000000E+00+
*       -5.250055084E+00               0
GRID*               3786               0-1.975065733E+010.0000000000E+00+
*       -5.000106735E+00               0
GRID*               3787               0-1.900015624E+010.0000000000E+00+
*       -5.250023326E+00               0
GRID*               3788               0-1.925029859E+010.0000000000E+00+
*       -5.000045955E+00               0
GRID*               3789               0-1.850006901E+010.0000000000E+00+
*       -5.250009744E+00               0
GRID*               3790               0-1.875013341E+010.0000000000E+00+
*       -5.000019461E+00               0
GRID*               3791               0-1.800002996E+010.0000000000E+00+
*       -5.250004023E+00               0
GRID*               3792               0-1.825005859E+010.0000000000E+00+
*       -5.000008124E+00               0
GRID*               3793               0-1.750001278E+010.0000000000E+00+
*       -5.250001646E+00               0
GRID*               3794               0-1.775002531E+010.0000000000E+00+
*       -5.000003352E+00               0
GRID*               3795               0-1.700000536E+010.0000000000E+00+
*       -5.250000670E+00               0
GRID*               3796               0-1.725001075E+010.0000000000E+00+
*       -5.000001371E+00               0
GRID*               3797               0-1.650000221E+010.0000000000E+00+
*       -5.250000273E+00               0
GRID*               3798               0-1.675000449E+010.0000000000E+00+
*       -5.000000559E+00               0
GRID*               3799               0-1.600000089E+010.0000000000E+00+
*       -5.250000112E+00               0
GRID*               3800               0-1.625000184E+010.0000000000E+00+
*       -5.000000228E+00               0
GRID*               3801               0-1.550000035E+010.0000000000E+00+
*       -5.250000047E+00               0
GRID*               3802               0-1.575000074E+010.0000000000E+00+
*       -5.000000094E+00               0
GRID*               3803               0-1.500000013E+010.0000000000E+00+
*       -5.250000021E+00               0
GRID*               3804               0-1.525000029E+010.0000000000E+00+
*       -5.000000040E+00               0
GRID*               3805               0-1.450000005E+010.0000000000E+00+
*       -5.250000009E+00               0
GRID*               3806               0-1.475000011E+010.0000000000E+00+
*       -5.000000018E+00               0
GRID*               3807               0-1.400000001E+010.0000000000E+00+
*       -5.250000005E+00               0
GRID*               3808               0-1.425000004E+010.0000000000E+00+
*       -5.000000008E+00               0
GRID*               3809               0-1.350000000E+010.0000000000E+00+
*       -5.250000002E+00               0
GRID*               3810               0-1.375000001E+010.0000000000E+00+
*       -5.000000004E+00               0
GRID*               3811               0-1.300000000E+010.0000000000E+00+
*       -5.250000001E+00               0
GRID*               3812               0-1.325000000E+010.0000000000E+00+
*       -5.000000002E+00               0
GRID*               3813               0-1.250000000E+010.0000000000E+00+
*       -5.250000001E+00               0
GRID*               3814               0-1.275000000E+010.0000000000E+00+
*       -5.000000001E+00               0
GRID*               3815               0-1.200000000E+010.0000000000E+00+
*       -5.250000000E+00               0
GRID*               3816               0-1.225000000E+010.0000000000E+00+
*       -5.000000001E+00               0
GRID*               3817               0-1.150000000E+010.0000000000E+00+
*       -5.250000000E+00               0
GRID*               3818               0-1.175000000E+010.0000000000E+00+
*       -5.000000000E+00               0
GRID*               3819               0-1.100000000E+010.0000000000E+00+
*       -5.250000000E+00               0
GRID*               3820               0-1.125000000E+010.0000000000E+00+
*       -5.000000000E+00               0
GRID*               3821               0-1.050000000E+010.0000000000E+00+
*       -5.250000000E+00               0
GRID*               3822               0-1.075000000E+010.0000000000E+00+
*       -5.000000000E+00               0
GRID*               3823               0-1.000000000E+010.0000000000E+00+
*       -5.250000000E+00               0
GRID*               3824               0-1.025000000E+010.0000000000E+00+
*       -5.000000000E+00               0
GRID*               3825               0-9.500000000E+000.0000000000E+00+
*       -5.250000000E+00               0
GRID*               3826               0-9.750000000E+000.0000000000E+00+
*       -5.000000000E+00               0
GRID*               3827               0-9.000000000E+000.0000000000E+00+
*       -5.250000000E+00               0
GRID*               3828               0-9.250000000E+000.0000000000E+00+
*       -5.000000000E+00               0
GRID*               3829               0-8.500000000E+000.0000000000E+00+
*       -5.250000000E+00               0
GRID*               3830               0-8.750000000E+000.0000000000E+00+
*       -5.000000000E+00               0
GRID*               3831               0-8.000000000E+000.0000000000E+00+
*       -5.250000000E+00               0
GRID*               3832               0-8.250000000E+000.0000000000E+00+
*       -5.000000000E+00               0
GRID*               3833               0-7.500000000E+000.0000000000E+00+
*       -5.250000000E+00               0
GRID*               3834               0-7.750000000E+000.0000000000E+00+
*       -5.000000000E+00               0
GRID*               3835               0-7.000000000E+000.0000000000E+00+
*       -5.250000000E+00               0
GRID*               3836               0-7.250000000E+000.0000000000E+00+
*       -5.000000000E+00               0
GRID*               3837               0-6.500000000E+000.0000000000E+00+
*       -5.250000000E+00               0
GRID*               3838               0-6.750000000E+000.0000000000E+00+
*       -5.000000000E+00               0
GRID*               3839               0-6.000000000E+000.0000000000E+00+
*       -5.250000000E+00               0
GRID*               3840               0-6.250000000E+000.0000000000E+00+
*       -5.000000000E+00               0
GRID*               3841               0-5.500000000E+000.0000000000E+00+
*       -5.250000000E+00               0
GRID*               3842               0-5.750000000E+000.0000000000E+00+
*       -5.000000000E+00               0
GRID*               3843               0-5.000000000E+000.0000000000E+00+
*       -5.250000000E+00               0
GRID*               3844               0-5.250000000E+000.0000000000E+00+
*       -5.000000000E+00               0
GRID*               3845               0-4.500000000E+000.0000000000E+00+
*       -5.250000000E+00               0
GRID*               3846               0-4.750000000E+000.0000000000E+00+
*       -5.000000000E+00               0
GRID*               3847               0-4.000000000E+000.0000000000E+00+
*       -5.250000000E+00               0
GRID*               3848               0-4.250000000E+000.0000000000E+00+
*       -5.000000000E+00               0
GRID*               3849               0-3.500000000E+000.0000000000E+00+
*       -5.250000000E+00               0
GRID*               3850               0-3.750000000E+000.0000000000E+00+
*       -5.000000000E+00               0
GRID*               3851               0-3.000000000E+000.0000000000E+00+
*       -5.250000000E+00               0
GRID*               3852               0-3.250000000E+000.0000000000E+00+
*       -5.000000000E+00               0
GRID*               3853               0-2.500000000E+000.0000000000E+00+
*       -5.250000000E+00               0
GRID*               3854               0-2.750000000E+000.0000000000E+00+
*       -5.000000000E+00               0
GRID*               3855               0-2.000000000E+000.0000000000E+00+
*       -5.250000000E+00               0
GRID*               3856               0-2.250000000E+000.0000000000E+00+
*       -5.000000000E+00               0
GRID*               3857               0-1.500000000E+000.0000000000E+00+
*       -5.250000000E+00               0
GRID*               3858               0-1.750000000E+000.0000000000E+00+
*       -5.000000000E+00               0
GRID*               3859               0-1.000000000E+000.0000000000E+00+
*       -5.250000000E+00               0
GRID*               3860               0-1.250000000E+000.0000000000E+00+
*       -5.000000000E+00               0
GRID*               3861               0-5.000000000E-010.0000000000E+00+
*       -5.250000000E+00               0
GRID*               3862               0-7.500000000E-010.0000000000E+00+
*       -5.000000000E+00               0
GRID*               3863               01.7097434579E-140.0000000000E+00+
*       -5.250000000E+00               0
GRID*               3864               0-2.500000000E-010.0000000000E+00+
*       -5.000000000E+00               0
GRID*               3865               05.0000000000E-010.0000000000E+00+
*       -5.250000000E+00               0
GRID*               3866               02.5000000000E-010.0000000000E+00+
*       -5.000000000E+00               0
GRID*               3867               01.0000000000E+000.0000000000E+00+
*       -5.250000000E+00               0
GRID*               3868               07.5000000000E-010.0000000000E+00+
*       -5.000000000E+00               0
GRID*               3869               01.5000000000E+000.0000000000E+00+
*       -5.250000000E+00               0
GRID*               3870               01.2500000000E+000.0000000000E+00+
*       -5.000000000E+00               0
GRID*               3871               02.0000000000E+000.0000000000E+00+
*       -5.250000000E+00               0
GRID*               3872               01.7500000000E+000.0000000000E+00+
*       -5.000000000E+00               0
GRID*               3873               02.5000000000E+000.0000000000E+00+
*       -5.250000000E+00               0
GRID*               3874               02.2500000000E+000.0000000000E+00+
*       -5.000000000E+00               0
GRID*               3875               03.0000000000E+000.0000000000E+00+
*       -5.250000000E+00               0
GRID*               3876               02.7500000000E+000.0000000000E+00+
*       -5.000000000E+00               0
GRID*               3877               03.5000000000E+000.0000000000E+00+
*       -5.250000000E+00               0
GRID*               3878               03.2500000000E+000.0000000000E+00+
*       -5.000000000E+00               0
GRID*               3879               04.0000000000E+000.0000000000E+00+
*       -5.250000000E+00               0
GRID*               3880               03.7500000000E+000.0000000000E+00+
*       -5.000000000E+00               0
GRID*               3881               04.5000000000E+000.0000000000E+00+
*       -5.250000000E+00               0
GRID*               3882               04.2500000000E+000.0000000000E+00+
*       -5.000000000E+00               0
GRID*               3883               05.0000000000E+000.0000000000E+00+
*       -5.250000000E+00               0
GRID*               3884               04.7500000000E+000.0000000000E+00+
*       -5.000000000E+00               0
GRID*               3885               05.5000000000E+000.0000000000E+00+
*       -5.250000000E+00               0
GRID*               3886               05.2500000000E+000.0000000000E+00+
*       -5.000000000E+00               0
GRID*               3887               06.0000000000E+000.0000000000E+00+
*       -5.250000000E+00               0
GRID*               3888               05.7500000000E+000.0000000000E+00+
*       -5.000000000E+00               0
GRID*               3889               06.5000000000E+000.0000000000E+00+
*       -5.250000000E+00               0
GRID*               3890               06.2500000000E+000.0000000000E+00+
*       -5.000000000E+00               0
GRID*               3891               07.0000000000E+000.0000000000E+00+
*       -5.250000000E+00               0
GRID*               3892               06.7500000000E+000.0000000000E+00+
*       -5.000000000E+00               0
GRID*               3893               07.5000000000E+000.0000000000E+00+
*       -5.250000000E+00               0
GRID*               3894               07.2500000000E+000.0000000000E+00+
*       -5.000000000E+00               0
GRID*               3895               08.0000000001E+000.0000000000E+00+
*       -5.250000000E+00               0
GRID*               3896               07.7500000001E+000.0000000000E+00+
*       -5.000000000E+00               0
GRID*               3897               08.5000000001E+000.0000000000E+00+
*       -5.250000000E+00               0
GRID*               3898               08.2500000001E+000.0000000000E+00+
*       -5.000000000E+00               0
GRID*               3899               09.0000000002E+000.0000000000E+00+
*       -5.250000000E+00               0
GRID*               3900               08.7500000002E+000.0000000000E+00+
*       -5.000000000E+00               0
GRID*               3901               09.5000000004E+000.0000000000E+00+
*       -5.250000000E+00               0
GRID*               3902               09.2500000003E+000.0000000000E+00+
*       -5.000000000E+00               0
GRID*               3903               01.0000000001E+010.0000000000E+00+
*       -5.250000000E+00               0
GRID*               3904               09.7500000006E+000.0000000000E+00+
*       -5.000000000E+00               0
GRID*               3905               01.0500000001E+010.0000000000E+00+
*       -5.250000000E+00               0
GRID*               3906               01.0250000001E+010.0000000000E+00+
*       -5.000000000E+00               0
GRID*               3907               01.1000000002E+010.0000000000E+00+
*       -5.250000000E+00               0
GRID*               3908               01.0750000002E+010.0000000000E+00+
*       -5.000000000E+00               0
GRID*               3909               01.1500000003E+010.0000000000E+00+
*       -5.250000000E+00               0
GRID*               3910               01.1250000003E+010.0000000000E+00+
*       -5.000000000E+00               0
GRID*               3911               01.2000000005E+010.0000000000E+00+
*       -5.249999999E+00               0
GRID*               3912               01.1750000005E+010.0000000000E+00+
*       -4.999999999E+00               0
GRID*               3913               01.2500000009E+010.0000000000E+00+
*       -5.249999999E+00               0
GRID*               3914               01.2250000008E+010.0000000000E+00+
*       -4.999999999E+00               0
GRID*               3915               01.3000000015E+010.0000000000E+00+
*       -5.249999998E+00               0
GRID*               3916               01.2750000014E+010.0000000000E+00+
*       -4.999999999E+00               0
GRID*               3917               01.3500000026E+010.0000000000E+00+
*       -5.249999998E+00               0
GRID*               3918               01.3250000023E+010.0000000000E+00+
*       -4.999999998E+00               0
GRID*               3919               01.4000000046E+010.0000000000E+00+
*       -5.249999999E+00               0
GRID*               3920               01.3750000041E+010.0000000000E+00+
*       -4.999999999E+00               0
GRID*               3921               01.4500000087E+010.0000000000E+00+
*       -5.250000005E+00               0
GRID*               3922               01.4250000078E+010.0000000000E+00+
*       -5.000000004E+00               0
GRID*               3923               01.5000000182E+010.0000000000E+00+
*       -5.250000026E+00               0
GRID*               3924               01.4750000162E+010.0000000000E+00+
*       -5.000000021E+00               0
GRID*               3925               01.5500000413E+010.0000000000E+00+
*       -5.250000085E+00               0
GRID*               3926               01.5250000363E+010.0000000000E+00+
*       -5.000000072E+00               0
GRID*               3927               01.6000000997E+010.0000000000E+00+
*       -5.250000251E+00               0
GRID*               3928               01.5750000870E+010.0000000000E+00+
*       -5.000000214E+00               0
GRID*               3929               01.6500002497E+010.0000000000E+00+
*       -5.250000697E+00               0
GRID*               3930               01.6250002166E+010.0000000000E+00+
*       -5.000000597E+00               0
GRID*               3931               01.7000006359E+010.0000000000E+00+
*       -5.250001866E+00               0
GRID*               3932               01.6750005492E+010.0000000000E+00+
*       -5.000001601E+00               0
GRID*               3933               01.7500016260E+010.0000000000E+00+
*       -5.250004894E+00               0
GRID*               3934               01.7250014007E+010.0000000000E+00+
*       -5.000004200E+00               0
GRID*               3935               01.8000041437E+010.0000000000E+00+
*       -5.250012653E+00               0
GRID*               3936               01.7750035626E+010.0000000000E+00+
*       -5.000010854E+00               0
GRID*               3937               01.8500104604E+010.0000000000E+00+
*       -5.250032320E+00               0
GRID*               3938               01.8250089839E+010.0000000000E+00+
*       -5.000027693E+00               0
GRID*               3939               01.9000259988E+010.0000000000E+00+
*       -5.250081516E+00               0
GRID*               3940               01.8750223386E+010.0000000000E+00+
*       -5.000069752E+00               0
GRID*               3941               01.9500632128E+010.0000000000E+00+
*       -5.250202580E+00               0
GRID*               3942               01.9250544897E+010.0000000000E+00+
*       -5.000173161E+00               0
GRID*               3943               02.0001491127E+010.0000000000E+00+
*       -5.250498786E+00               0
GRID*               3944               01.9751295372E+010.0000000000E+00+
*       -5.000426506E+00               0
GRID*               3945               02.0503369671E+010.0000000000E+00+
*       -5.251241307E+00               0
GRID*               3946               02.0252974432E+010.0000000000E+00+
*       -5.001055521E+00               0
GRID*               3947               02.1007195529E+010.0000000000E+00+
*       -5.253079902E+00               0
GRID*               3948               02.0756545837E+010.0000000000E+00+
*       -5.002607040E+00               0
GRID*               3949               02.1514368008E+010.0000000000E+00+
*       -5.257454566E+00               0
GRID*               3950               02.1263746339E+010.0000000000E+00+
*       -5.006339551E+00               0
GRID*               3951               02.2025991227E+010.0000000000E+00+
*       -5.267603443E+00               0
GRID*               3952               02.1777047900E+010.0000000000E+00+
*       -5.015244453E+00               0
GRID*               3953               02.2536266557E+010.0000000000E+00+
*       -5.291080015E+00               0
GRID*               3954               02.2294819190E+010.0000000000E+00+
*       -5.037112458E+00               0
GRID*               3955               02.2998212785E+010.0000000000E+00+
*       -5.343567887E+00               0
GRID*               3956               02.2775635946E+010.0000000000E+00+
*       -5.092622861E+00               0
GRID*               3957               02.3463003088E+010.0000000000E+00+
*       -5.335842485E+00               0
GRID*               3958               02.3221694248E+010.0000000000E+00+
*       -5.126123206E+00               0
GRID*               3959               02.3691060174E+010.0000000000E+00+
*       -5.096885961E+00               0
GRID*               3960               02.3623736156E+010.0000000000E+00+
*       -4.675075666E+00               0
GRID*               3961               02.3413597930E+010.0000000000E+00+
*       -4.918612945E+00               0
GRID*               3962               02.3302330800E+010.0000000000E+00+
*       -4.534118070E+00               0
GRID*               3963               0-2.254205754E+010.0000000000E+00+
*       -4.755309180E+00               0
GRID*               3964               0-2.312100079E+010.0000000000E+00+
*       -4.759442923E+00               0
GRID*               3965               0-2.383140755E+010.0000000000E+00+
*       -4.457991956E+00               0
GRID*               3966               0-2.415382123E+010.0000000000E+00+
*       -4.601998379E+00               0
GRID*               3967               0-2.393579788E+010.0000000000E+00+
*       -4.867666820E+00               0
GRID*               3968               0-2.334729514E+010.0000000000E+00+
*       -4.611801716E+00               0
GRID*               3969               0-2.351095580E+010.0000000000E+00+
*       -4.918048121E+00               0
GRID*               3970               0-2.370944555E+010.0000000000E+00+
*       -4.694919094E+00               0
GRID*               3971               0-2.201812227E+010.0000000000E+00+
*       -4.752637581E+00               0
GRID*               3972               0-2.150814086E+010.0000000000E+00+
*       -4.751270729E+00               0
GRID*               3973               0-2.100372004E+010.0000000000E+00+
*       -4.750594383E+00               0
GRID*               3974               05.0000000000E-010.0000000000E+00+
*       -4.750000000E+00               0
GRID*               3975               01.0000000000E+000.0000000000E+00+
*       -4.750000000E+00               0
GRID*               3976               01.2097094160E-140.0000000000E+00+
*       -4.750000000E+00               0
GRID*               3977               0-5.000000000E-010.0000000000E+00+
*       -4.750000000E+00               0
GRID*               3978               0-1.000000000E+000.0000000000E+00+
*       -4.750000000E+00               0
GRID*               3979               0-1.500000000E+000.0000000000E+00+
*       -4.750000000E+00               0
GRID*               3980               0-2.000000000E+000.0000000000E+00+
*       -4.750000000E+00               0
GRID*               3981               0-2.500000000E+000.0000000000E+00+
*       -4.750000000E+00               0
GRID*               3982               0-3.000000000E+000.0000000000E+00+
*       -4.750000000E+00               0
GRID*               3983               0-3.500000000E+000.0000000000E+00+
*       -4.750000000E+00               0
GRID*               3984               0-4.000000000E+000.0000000000E+00+
*       -4.750000000E+00               0
GRID*               3985               0-4.500000000E+000.0000000000E+00+
*       -4.750000000E+00               0
GRID*               3986               0-5.000000000E+000.0000000000E+00+
*       -4.750000000E+00               0
GRID*               3987               0-5.500000000E+000.0000000000E+00+
*       -4.750000000E+00               0
GRID*               3988               0-6.000000000E+000.0000000000E+00+
*       -4.750000000E+00               0
GRID*               3989               0-6.500000000E+000.0000000000E+00+
*       -4.750000000E+00               0
GRID*               3990               0-7.000000000E+000.0000000000E+00+
*       -4.750000000E+00               0
GRID*               3991               0-7.500000000E+000.0000000000E+00+
*       -4.750000000E+00               0
GRID*               3992               0-8.000000000E+000.0000000000E+00+
*       -4.750000000E+00               0
GRID*               3993               0-8.500000000E+000.0000000000E+00+
*       -4.750000000E+00               0
GRID*               3994               0-9.000000000E+000.0000000000E+00+
*       -4.750000000E+00               0
GRID*               3995               0-9.500000000E+000.0000000000E+00+
*       -4.750000000E+00               0
GRID*               3996               0-1.000000000E+010.0000000000E+00+
*       -4.750000000E+00               0
GRID*               3997               0-1.050000000E+010.0000000000E+00+
*       -4.750000000E+00               0
GRID*               3998               0-1.100000000E+010.0000000000E+00+
*       -4.750000000E+00               0
GRID*               3999               0-1.150000000E+010.0000000000E+00+
*       -4.750000000E+00               0
GRID*               4000               0-1.200000000E+010.0000000000E+00+
*       -4.750000000E+00               0
GRID*               4001               0-1.250000000E+010.0000000000E+00+
*       -4.750000001E+00               0
GRID*               4002               0-1.300000000E+010.0000000000E+00+
*       -4.750000001E+00               0
GRID*               4003               0-1.350000000E+010.0000000000E+00+
*       -4.750000002E+00               0
GRID*               4004               0-1.400000001E+010.0000000000E+00+
*       -4.750000004E+00               0
GRID*               4005               0-1.450000004E+010.0000000000E+00+
*       -4.750000009E+00               0
GRID*               4006               0-1.500000011E+010.0000000000E+00+
*       -4.750000019E+00               0
GRID*               4007               0-1.550000031E+010.0000000000E+00+
*       -4.750000043E+00               0
GRID*               4008               0-1.600000081E+010.0000000000E+00+
*       -4.750000101E+00               0
GRID*               4009               0-1.650000204E+010.0000000000E+00+
*       -4.750000245E+00               0
GRID*               4010               0-1.700000503E+010.0000000000E+00+
*       -4.750000603E+00               0
GRID*               4011               0-1.750001214E+010.0000000000E+00+
*       -4.750001492E+00               0
GRID*               4012               0-1.800002885E+010.0000000000E+00+
*       -4.750003678E+00               0
GRID*               4013               0-1.850006747E+010.0000000000E+00+
*       -4.750008996E+00               0
GRID*               4014               0-1.900015517E+010.0000000000E+00+
*       -4.750021742E+00               0
GRID*               4015               0-1.950035025E+010.0000000000E+00+
*       -4.750051749E+00               0
GRID*               4016               0-2.000077755E+010.0000000000E+00+
*       -4.750120321E+00               0
GRID*               4017               0-2.050170561E+010.0000000000E+00+
*       -4.750271142E+00               0
GRID*               4018               01.1500000003E+010.0000000000E+00+
*       -4.750000000E+00               0
GRID*               4019               01.2000000005E+010.0000000000E+00+
*       -4.749999999E+00               0
GRID*               4020               01.1000000002E+010.0000000000E+00+
*       -4.750000000E+00               0
GRID*               4021               01.0500000001E+010.0000000000E+00+
*       -4.750000000E+00               0
GRID*               4022               01.0000000001E+010.0000000000E+00+
*       -4.750000000E+00               0
GRID*               4023               09.5000000003E+000.0000000000E+00+
*       -4.750000000E+00               0
GRID*               4024               09.0000000002E+000.0000000000E+00+
*       -4.750000000E+00               0
GRID*               4025               08.5000000001E+000.0000000000E+00+
*       -4.750000000E+00               0
GRID*               4026               08.0000000001E+000.0000000000E+00+
*       -4.750000000E+00               0
GRID*               4027               07.5000000000E+000.0000000000E+00+
*       -4.750000000E+00               0
GRID*               4028               07.0000000000E+000.0000000000E+00+
*       -4.750000000E+00               0
GRID*               4029               06.5000000000E+000.0000000000E+00+
*       -4.750000000E+00               0
GRID*               4030               06.0000000000E+000.0000000000E+00+
*       -4.750000000E+00               0
GRID*               4031               05.5000000000E+000.0000000000E+00+
*       -4.750000000E+00               0
GRID*               4032               05.0000000000E+000.0000000000E+00+
*       -4.750000000E+00               0
GRID*               4033               04.5000000000E+000.0000000000E+00+
*       -4.750000000E+00               0
GRID*               4034               04.0000000000E+000.0000000000E+00+
*       -4.750000000E+00               0
GRID*               4035               03.5000000000E+000.0000000000E+00+
*       -4.750000000E+00               0
GRID*               4036               03.0000000000E+000.0000000000E+00+
*       -4.750000000E+00               0
GRID*               4037               02.5000000000E+000.0000000000E+00+
*       -4.750000000E+00               0
GRID*               4038               02.0000000000E+000.0000000000E+00+
*       -4.750000000E+00               0
GRID*               4039               01.5000000000E+000.0000000000E+00+
*       -4.750000000E+00               0
GRID*               4040               01.7000006988E+010.0000000000E+00+
*       -4.750002066E+00               0
GRID*               4041               01.7500017755E+010.0000000000E+00+
*       -4.750005370E+00               0
GRID*               4042               01.6500002756E+010.0000000000E+00+
*       -4.750000780E+00               0
GRID*               4043               01.6000001100E+010.0000000000E+00+
*       -4.750000286E+00               0
GRID*               4044               01.5500000453E+010.0000000000E+00+
*       -4.750000100E+00               0
GRID*               4045               01.5000000196E+010.0000000000E+00+
*       -4.750000032E+00               0
GRID*               4046               01.4500000092E+010.0000000000E+00+
*       -4.750000008E+00               0
GRID*               4047               01.4000000047E+010.0000000000E+00+
*       -4.750000000E+00               0
GRID*               4048               01.3500000026E+010.0000000000E+00+
*       -4.749999999E+00               0
GRID*               4049               01.3000000015E+010.0000000000E+00+
*       -4.749999999E+00               0
GRID*               4050               01.2500000009E+010.0000000000E+00+
*       -4.749999999E+00               0
GRID*               4051               01.9500671726E+010.0000000000E+00+
*       -4.750214538E+00               0
GRID*               4052               02.0001592692E+010.0000000000E+00+
*       -4.750524366E+00               0
GRID*               4053               01.9000277193E+010.0000000000E+00+
*       -4.750087068E+00               0
GRID*               4054               01.8500112347E+010.0000000000E+00+
*       -4.750034840E+00               0
GRID*               4055               01.8000044885E+010.0000000000E+00+
*       -4.750013764E+00               0
GRID*               4056               02.0503682801E+010.0000000000E+00+
*       -4.751283017E+00               0
GRID*               4057               02.1008336054E+010.0000000000E+00+
*       -4.753110583E+00               0
GRID*               4058               02.1518805276E+010.0000000000E+00+
*       -4.757375272E+00               0
GRID*               4059               02.2043679032E+010.0000000000E+00+
*       -4.767184047E+00               0
GRID*               4060               02.2611766440E+010.0000000000E+00+
*       -4.790412556E+00               0
GRID*               4061               02.3188655097E+010.0000000000E+00+
*       -4.747070229E+00               0
GRID*               4062               02.2996751415E+010.0000000000E+00+
*       -4.954580489E+00               0
GRID*               4063               02.2832881908E+010.0000000000E+00+
*       -4.652370184E+00               0
GRID*               4064               0-3.708984227E+010.0000000000E+00+
*       -2.385933241E+00               0
GRID*               4065               0-3.743099196E+010.0000000000E+00+
*       -2.124632311E+00               0
GRID*               4066               0-3.705999724E+010.0000000000E+00+
*       -2.121872615E+00               0
GRID*               4067               0-3.803125160E+010.0000000000E+00+
*       -5.087563356E-01               0
GRID*               4068               0-3.798635169E+010.0000000000E+00+
*       -9.080658489E-01               0
GRID*               4069               0-3.787325317E+010.0000000000E+00+
*       -7.005350398E-01               0
GRID*               4070               0-3.725411128E+010.0000000000E+00+
*       -1.702333228E+00               0
GRID*               4071               0-3.742264189E+010.0000000000E+00+
*       -1.171328495E+00               0
GRID*               4072               0-3.752371372E+010.0000000000E+00+
*       -1.418302486E+00               0
GRID*               4073               0-3.762928235E+010.0000000000E+00+
*       1.6789526364E-01               0
GRID*               4074               0-3.775526731E+010.0000000000E+00+
*       4.3583632085E-01               0
GRID*               4075               0-3.789992861E+010.0000000000E+00+
*       1.9869822116E-01               0
GRID*               4076               0-3.777394365E+010.0000000000E+00+
*       -6.924283605E-02               0
GRID*               4077               0-3.758672772E+010.0000000000E+00+
*       6.7883266446E-01               0
GRID*               4078               0-3.769025625E+010.0000000000E+00+
*       9.3781305364E-01               0
GRID*               4079               0-3.785879584E+010.0000000000E+00+
*       6.9481671003E-01               0
GRID*               4080               0-3.750965281E+010.0000000000E+00+
*       -1.115968637E-01               0
GRID*               4081               0-3.762746602E+010.0000000000E+00+
*       -3.403532095E-01               0
GRID*               4082               0-3.747649160E+010.0000000000E+00+
*       -6.313572786E-01               0
GRID*               4083               0-3.749310868E+010.0000000000E+00+
*       4.1382788343E-01               0
GRID*               4084               0-3.742274189E+010.0000000000E+00+
*       9.3464853211E-01               0
GRID*               4085               0-3.730234552E+010.0000000000E+00+
*       1.4361589859E+00               0
GRID*               4086               0-3.749894087E+010.0000000000E+00+
*       1.1739844504E+00               0
GRID*               4087               0-3.758489480E+010.0000000000E+00+
*       1.4124299825E+00               0
GRID*               4088               0-3.777621018E+010.0000000000E+00+
*       1.1762585858E+00               0
GRID*               4089               0-3.786869851E+010.0000000000E+00+
*       1.4221696099E+00               0
GRID*               4090               0-3.797034023E+010.0000000000E+00+
*       9.5197971211E-01               0
GRID*               4091               0-3.803284573E+010.0000000000E+00+
*       4.5899959230E-01               0
GRID*               4092               0-3.805217199E+010.0000000000E+00+
*       -3.611260201E-02               0
GRID*               4093               0-3.789925313E+010.0000000000E+00+
*       -2.836407735E-01               0
GRID*               4094               0-3.775277550E+010.0000000000E+00+
*       -5.547511470E-01               0
GRID*               4095               0-3.401973557E+010.0000000000E+00+
*       4.7936349825E+00               0
GRID*               4096               0-3.385113355E+010.0000000000E+00+
*       4.9932948599E+00               0
GRID*               4097               0-3.426335254E+010.0000000000E+00+
*       5.0691460455E+00               0
GRID*               4098               0-3.532819997E+010.0000000000E+00+
*       4.1798151820E+00               0
GRID*               4099               0-3.490412548E+010.0000000000E+00+
*       4.4424635511E+00               0
GRID*               4100               0-3.517924710E+010.0000000000E+00+
*       4.4688907779E+00               0
GRID*               4101               0-3.465224207E+010.0000000000E+00+
*       4.9499097479E+00               0
GRID*               4102               0-3.438902707E+010.0000000000E+00+
*       4.8362562575E+00               0
GRID*               4103               0-3.629660180E+010.0000000000E+00+
*       3.4895876507E+00               0
GRID*               4104               0-3.594068672E+010.0000000000E+00+
*       3.8603423767E+00               0
GRID*               4105               0-3.577933762E+010.0000000000E+00+
*       4.2486709123E+00               0
GRID*               4106               0-3.568191869E+010.0000000000E+00+
*       3.8942815126E+00               0
GRID*               4107               0-3.775128193E+010.0000000000E+00+
*       1.8359940650E+00               0
GRID*               4108               0-3.767105174E+010.0000000000E+00+
*       1.6091804595E+00               0
GRID*               4109               0-3.732034547E+010.0000000000E+00+
*       2.0167320968E+00               0
GRID*               4110               0-3.715410183E+010.0000000000E+00+
*       1.8989429407E+00               0
GRID*               4111               0-3.701627709E+010.0000000000E+00+
*       2.3191637229E+00               0
GRID*               4112               0-3.662961698E+010.0000000000E+00+
*       3.0878102388E+00               0
GRID*               4113               03.6986583765E+010.0000000000E+00+
*       2.5414515908E+00               0
GRID*               4114               03.6290578527E+010.0000000000E+00+
*       4.0713945922E+00               0
GRID*               4115               03.5958198323E+010.0000000000E+00+
*       4.3443349112E+00               0
GRID*               4116               03.6050353437E+010.0000000000E+00+
*       4.0885872378E+00               0
GRID*               4117               03.6283235051E+010.0000000000E+00+
*       3.6046067014E+00               0
GRID*               4118               03.6108590692E+010.0000000000E+00+
*       3.4995370092E+00               0
GRID*               4119               03.6437992705E+010.0000000000E+00+
*       3.2044322432E+00               0
GRID*               4120               03.5286429925E+010.0000000000E+00+
*       4.6284317540E+00               0
GRID*               4121               03.5007573835E+010.0000000000E+00+
*       4.6392943769E+00               0
GRID*               4122               03.5164055166E+010.0000000000E+00+
*       4.3870976161E+00               0
GRID*               4123               03.5442911256E+010.0000000000E+00+
*       4.3762349932E+00               0
GRID*               4124               03.4842654588E+010.0000000000E+00+
*       4.8691285853E+00               0
GRID*               4125               03.4543418201E+010.0000000000E+00+
*       4.8635341531E+00               0
GRID*               4126               03.4708337449E+010.0000000000E+00+
*       4.6336999447E+00               0
GRID*               4127               03.5567879186E+010.0000000000E+00+
*       4.6262909398E+00               0
GRID*               4128               03.5695444113E+010.0000000000E+00+
*       4.3582836288E+00               0
GRID*               4129               03.5139950776E+010.0000000000E+00+
*       4.8834415845E+00               0
GRID*               4130               03.4686364312E+010.0000000000E+00+
*       5.1042988243E+00               0
GRID*               4131               03.4215418509E+010.0000000000E+00+
*       5.2852049416E+00               0
GRID*               4132               03.4376044758E+010.0000000000E+00+
*       5.0710439571E+00               0
GRID*               4133               03.4055262602E+010.0000000000E+00+
*       5.0466197829E+00               0
GRID*               4134               03.4222636045E+010.0000000000E+00+
*       4.8391099790E+00               0
GRID*               4135               03.3900463687E+010.0000000000E+00+
*       4.8149840884E+00               0
GRID*               4136               03.4405189779E+010.0000000000E+00+
*       4.6352967227E+00               0
GRID*               4137               03.4883823598E+010.0000000000E+00+
*       4.4074424336E+00               0
GRID*               4138               03.5333309924E+010.0000000000E+00+
*       4.1330431377E+00               0
GRID*               4139               03.5583392999E+010.0000000000E+00+
*       4.1073270201E+00               0
GRID*               4140               03.5744572884E+010.0000000000E+00+
*       3.8216036139E+00               0
GRID*               4141               03.5835925856E+010.0000000000E+00+
*       4.0893756556E+00               0
GRID*               4142               03.0823248993E+010.0000000000E+00+
*       5.2870689780E+00               0
GRID*               4143               03.0586065270E+010.0000000000E+00+
*       5.0645172208E+00               0
GRID*               4144               03.0867038996E+010.0000000000E+00+
*       4.9437449030E+00               0
GRID*               4145               03.1104222720E+010.0000000000E+00+
*       5.1662966602E+00               0
GRID*               4146               03.1060638299E+010.0000000000E+00+
*       5.4921099015E+00               0
GRID*               4147               03.1338523324E+010.0000000000E+00+
*       5.3541489900E+00               0
GRID*               4148               03.1570698640E+010.0000000000E+00+
*       5.5336745363E+00               0
GRID*               4149               03.0547226690E+010.0000000000E+00+
*       5.4342055605E+00               0
GRID*               4150               03.0020844404E+010.0000000000E+00+
*       5.3634959894E+00               0
GRID*               4151               03.0297220843E+010.0000000000E+00+
*       5.1988513681E+00               0
GRID*               4152               03.0048123493E+010.0000000000E+00+
*       4.9307572620E+00               0
GRID*               4153               03.0336967919E+010.0000000000E+00+
*       4.7964231147E+00               0
GRID*               4154               03.0121258918E+010.0000000000E+00+
*       4.5029493439E+00               0
GRID*               4155               03.0635033377E+010.0000000000E+00+
*       4.7025131756E+00               0
GRID*               4156               03.1148988365E+010.0000000000E+00+
*       4.8524026809E+00               0
GRID*               4157               03.1386044070E+010.0000000000E+00+
*       5.0485757424E+00               0
GRID*               4158               03.1670913319E+010.0000000000E+00+
*       4.9535025305E+00               0
GRID*               4159               03.1620344675E+010.0000000000E+00+
*       5.2364280722E+00               0
GRID*               4160               03.3742983655E+010.0000000000E+00+
*       5.4365619760E+00               0
GRID*               4161               03.3899689975E+010.0000000000E+00+
*       5.2399130634E+00               0
GRID*               4162               03.3082324657E+010.0000000000E+00+
*       5.5483355144E+00               0
GRID*               4163               03.2587435339E+010.0000000000E+00+
*       5.5608251198E+00               0
GRID*               4164               03.2869987890E+010.0000000000E+00+
*       5.4141624425E+00               0
GRID*               4165               03.2080840580E+010.0000000000E+00+
*       5.5577347975E+00               0
GRID*               4166               03.2364483908E+010.0000000000E+00+
*       5.4164903509E+00               0
GRID*               4167               03.1852201984E+010.0000000000E+00+
*       5.3979989847E+00               0
GRID*               4168               03.1907921985E+010.0000000000E+00+
*       5.1147064347E+00               0
GRID*               4169               03.2139779295E+010.0000000000E+00+
*       5.2762773472E+00               0
GRID*               4170               03.2200682851E+010.0000000000E+00+
*       5.0069438661E+00               0
GRID*               4171               03.2437542916E+010.0000000000E+00+
*       5.1417113636E+00               0
GRID*               4172               03.2736860239E+010.0000000000E+00+
*       5.0100971030E+00               0
GRID*               4173               03.2662247529E+010.0000000000E+00+
*       5.2819243673E+00               0
GRID*               4174               0-3.334932624E+010.0000000000E+00+
*       5.0923204891E+00               0
GRID*               4175               0-3.284234926E+010.0000000000E+00+
*       5.1632322733E+00               0
GRID*               4176               0-3.247231941E+010.0000000000E+00+
*       5.3762534872E+00               0
GRID*               4177               0-3.261579892E+010.0000000000E+00+
*       5.0312733117E+00               0
GRID*               4178               0-3.227361567E+010.0000000000E+00+
*       5.1988158237E+00               0
GRID*               4179               0-3.205803770E+010.0000000000E+00+
*       5.4012139691E+00               0
GRID*               4180               0-2.958201363E+010.0000000000E+00+
*       4.7744909966E+00               0
GRID*               4181               0-2.942490123E+010.0000000000E+00+
*       4.9296426347E+00               0
GRID*               4182               0-2.964133218E+010.0000000000E+00+
*       5.1281134252E+00               0
GRID*               4183               0-2.979844459E+010.0000000000E+00+
*       4.9729617871E+00               0
GRID*               4184               0-2.944049291E+010.0000000000E+00+
*       5.3396846142E+00               0
GRID*               4185               0-2.990299952E+010.0000000000E+00+
*       5.3401025506E+00               0
GRID*               4186               0-3.006660576E+010.0000000000E+00+
*       4.4409856741E+00               0
GRID*               4187               0-2.963393908E+010.0000000000E+00+
*       4.1899335766E+00               0
GRID*               4188               0-2.975362272E+010.0000000000E+00+
*       4.4775308241E+00               0
GRID*               4189               0-2.948884719E+010.0000000000E+00+
*       4.5505469782E+00               0
GRID*               4190               0-2.984678916E+010.0000000000E+00+
*       4.7014748425E+00               0
GRID*               4191               0-3.104262457E+010.0000000000E+00+
*       5.3303816860E+00               0
GRID*               4192               0-3.073297448E+010.0000000000E+00+
*       5.0394675141E+00               0
GRID*               4193               0-3.043540137E+010.0000000000E+00+
*       5.2430516075E+00               0
GRID*               4194               0-3.157124381E+010.0000000000E+00+
*       5.3827461983E+00               0
GRID*               4195               0-3.133307867E+010.0000000000E+00+
*       5.1459282283E+00               0
GRID*               4196               0-3.164904205E+010.0000000000E+00+
*       4.9995636584E+00               0
GRID*               4197               0-3.111789423E+010.0000000000E+00+
*       4.9036940388E+00               0
GRID*               4198               0-3.053206299E+010.0000000000E+00+
*       4.7469444288E+00               0
GRID*               4199               0-2.929585573E+010.0000000000E+00+
*       4.2340553077E+00               0
GRID*               4200               0-2.916742688E+010.0000000000E+00+
*       3.8914420340E+00               0
GRID*               4201               0-2.877441167E+010.0000000000E+00+
*       3.4826813622E+00               0
GRID*               4202               0-2.884139062E+010.0000000000E+00+
*       3.8795726256E+00               0
GRID*               4203               0-2.838950031E+010.0000000000E+00+
*       3.0753770670E+00               0
GRID*               4204               0-2.842725981E+010.0000000000E+00+
*       3.4586955331E+00               0
GRID*               4205               0-2.810281972E+010.0000000000E+00+
*       2.5923030144E+00               0
GRID*               4206               0-2.807378253E+010.0000000000E+00+
*       3.0011271515E+00               0
GRID*               4207               0-2.784683642E+010.0000000000E+00+
*       2.1237999888E+00               0
GRID*               4208               0-2.779969003E+010.0000000000E+00+
*       2.5147295117E+00               0
GRID*               4209               0-2.764020069E+010.0000000000E+00+
*       1.6275177851E+00               0
GRID*               4210               0-2.755283764E+010.0000000000E+00+
*       2.0418442465E+00               0
GRID*               4211               0-2.749924224E+010.0000000000E+00+
*       1.1118212487E+00               0
GRID*               4212               0-2.736558859E+010.0000000000E+00+
*       1.5425149979E+00               0
GRID*               4213               0-2.732871634E+010.0000000000E+00+
*       5.5659419238E-01               0
GRID*               4214               0-2.715708115E+010.0000000000E+00+
*       9.9877100340E-01               0
GRID*               4215               0-2.703732399E+010.0000000000E+00+
*       3.1886761030E-01               0
GRID*               4216               0-2.674171413E+010.0000000000E+00+
*       6.3966332013E-01               0
GRID*               4217               0-2.651314821E+010.0000000000E+00+
*       1.2488424475E+00               0
GRID*               4218               0-2.685560059E+010.0000000000E+00+
*       1.0402735980E+00               0
GRID*               4219               0-2.632256403E+010.0000000000E+00+
*       1.7831197800E+00               0
GRID*               4220               0-2.659685483E+010.0000000000E+00+
*       1.6374405572E+00               0
GRID*               4221               0-2.603600705E+010.0000000000E+00+
*       2.2957029613E+00               0
GRID*               4222               0-2.635623158E+010.0000000000E+00+
*       2.1664002777E+00               0
GRID*               4223               0-2.568201800E+010.0000000000E+00+
*       2.7687558489E+00               0
GRID*               4224               0-2.602350042E+010.0000000000E+00+
*       2.6730675261E+00               0
GRID*               4225               0-2.524561411E+010.0000000000E+00+
*       3.2092975009E+00               0
GRID*               4226               0-2.560595344E+010.0000000000E+00+
*       3.1563747731E+00               0
GRID*               4227               0-2.470216981E+010.0000000000E+00+
*       3.5585591233E+00               0
GRID*               4228               0-2.505639262E+010.0000000000E+00+
*       3.5733317751E+00               0
GRID*               4229               0-2.416826330E+010.0000000000E+00+
*       3.7729348303E+00               0
GRID*               4230               0-2.445801104E+010.0000000000E+00+
*       3.8291543955E+00               0
GRID*               4231               0-2.366307176E+010.0000000000E+00+
*       3.9473602140E+00               0
GRID*               4232               0-2.393681350E+010.0000000000E+00+
*       3.9814381037E+00               0
GRID*               4233               0-2.314717183E+010.0000000000E+00+
*       4.0680557384E+00               0
GRID*               4234               0-2.346199992E+010.0000000000E+00+
*       4.1160764326E+00               0
GRID*               4235               0-2.264785191E+010.0000000000E+00+
*       4.1385614464E+00               0
GRID*               4236               0-2.298361220E+010.0000000000E+00+
*       4.2280050032E+00               0
GRID*               4237               0-2.208018707E+010.0000000000E+00+
*       4.1872142563E+00               0
GRID*               4238               0-2.245131447E+010.0000000000E+00+
*       4.3272835538E+00               0
GRID*               4239               0-2.153064823E+010.0000000000E+00+
*       4.1938843808E+00               0
GRID*               4240               0-2.186083530E+010.0000000000E+00+
*       4.3811768584E+00               0
GRID*               4241               0-2.101285512E+010.0000000000E+00+
*       4.1954374791E+00               0
GRID*               4242               0-2.129350335E+010.0000000000E+00+
*       4.3893218600E+00               0
GRID*               4243               0-2.050564753E+010.0000000000E+00+
*       4.1958289315E+00               0
GRID*               4244               0-2.076850265E+010.0000000000E+00+
*       4.3912664107E+00               0
GRID*               4245               0-2.000260167E+010.0000000000E+00+
*       4.1959113797E+00               0
GRID*               4246               0-2.025824920E+010.0000000000E+00+
*       4.3917403113E+00               0
GRID*               4247               0-1.950123239E+010.0000000000E+00+
*       4.1961575234E+00               0
GRID*               4248               0-1.975383406E+010.0000000000E+00+
*       4.3920689031E+00               0
GRID*               4249               0-1.900059417E+010.0000000000E+00+
*       4.1961106849E+00               0
GRID*               4250               0-1.925182655E+010.0000000000E+00+
*       4.3922682083E+00               0
GRID*               4251               0-1.850028491E+010.0000000000E+00+
*       4.1963098659E+00               0
GRID*               4252               0-1.875087908E+010.0000000000E+00+
*       4.3924205508E+00               0
GRID*               4253               0-1.800013670E+010.0000000000E+00+
*       4.1962498192E+00               0
GRID*               4254               0-1.825042161E+010.0000000000E+00+
*       4.3925596851E+00               0
GRID*               4255               0-1.750006540E+010.0000000000E+00+
*       4.1961953635E+00               0
GRID*               4256               0-1.775020210E+010.0000000000E+00+
*       4.3924451827E+00               0
GRID*               4257               0-1.700003125E+010.0000000000E+00+
*       4.1961673286E+00               0
GRID*               4258               0-1.725009665E+010.0000000000E+00+
*       4.3923626921E+00               0
GRID*               4259               0-1.650001496E+010.0000000000E+00+
*       4.1961565586E+00               0
GRID*               4260               0-1.675004621E+010.0000000000E+00+
*       4.3923238872E+00               0
GRID*               4261               0-1.600000724E+010.0000000000E+00+
*       4.1961535290E+00               0
GRID*               4262               0-1.625002220E+010.0000000000E+00+
*       4.3923100876E+00               0
GRID*               4263               0-1.550000361E+010.0000000000E+00+
*       4.1961529311E+00               0
GRID*               4264               0-1.575001085E+010.0000000000E+00+
*       4.3923064601E+00               0
GRID*               4265               0-1.500000190E+010.0000000000E+00+
*       4.1961528921E+00               0
GRID*               4266               0-1.525000550E+010.0000000000E+00+
*       4.3923058232E+00               0
GRID*               4267               0-1.450000107E+010.0000000000E+00+
*       4.1961529521E+00               0
GRID*               4268               0-1.475000297E+010.0000000000E+00+
*       4.3923058442E+00               0
GRID*               4269               0-1.400000065E+010.0000000000E+00+
*       4.1961530171E+00               0
GRID*               4270               0-1.425000173E+010.0000000000E+00+
*       4.3923059692E+00               0
GRID*               4271               0-1.350000042E+010.0000000000E+00+
*       4.1961530704E+00               0
GRID*               4272               0-1.375000107E+010.0000000000E+00+
*       4.3923060875E+00               0
GRID*               4273               0-1.300000027E+010.0000000000E+00+
*       4.1961531105E+00               0
GRID*               4274               0-1.325000069E+010.0000000000E+00+
*       4.3923061809E+00               0
GRID*               4275               0-1.250000018E+010.0000000000E+00+
*       4.1961531393E+00               0
GRID*               4276               0-1.275000046E+010.0000000000E+00+
*       4.3923062498E+00               0
GRID*               4277               0-1.200000012E+010.0000000000E+00+
*       4.1961531590E+00               0
GRID*               4278               0-1.225000030E+010.0000000000E+00+
*       4.3923062983E+00               0
GRID*               4279               0-1.150000008E+010.0000000000E+00+
*       4.1961531722E+00               0
GRID*               4280               0-1.175000020E+010.0000000000E+00+
*       4.3923063313E+00               0
GRID*               4281               0-1.100000005E+010.0000000000E+00+
*       4.1961531808E+00               0
GRID*               4282               0-1.125000013E+010.0000000000E+00+
*       4.3923063530E+00               0
GRID*               4283               0-1.050000003E+010.0000000000E+00+
*       4.1961531863E+00               0
GRID*               4284               0-1.075000008E+010.0000000000E+00+
*       4.3923063671E+00               0
GRID*               4285               0-1.000000002E+010.0000000000E+00+
*       4.1961531898E+00               0
GRID*               4286               0-1.025000005E+010.0000000000E+00+
*       4.3923063761E+00               0
GRID*               4287               0-9.500000013E+000.0000000000E+00+
*       4.1961531920E+00               0
GRID*               4288               0-9.750000034E+000.0000000000E+00+
*       4.3923063818E+00               0
GRID*               4289               0-9.000000009E+000.0000000000E+00+
*       4.1961531934E+00               0
GRID*               4290               0-9.250000022E+000.0000000000E+00+
*       4.3923063855E+00               0
GRID*               4291               0-8.500000005E+000.0000000000E+00+
*       4.1961531943E+00               0
GRID*               4292               0-8.750000014E+000.0000000000E+00+
*       4.3923063878E+00               0
GRID*               4293               0-8.000000003E+000.0000000000E+00+
*       4.1961531949E+00               0
GRID*               4294               0-8.250000009E+000.0000000000E+00+
*       4.3923063892E+00               0
GRID*               4295               0-7.500000002E+000.0000000000E+00+
*       4.1961531952E+00               0
GRID*               4296               0-7.750000006E+000.0000000000E+00+
*       4.3923063901E+00               0
GRID*               4297               0-7.000000001E+000.0000000000E+00+
*       4.1961531954E+00               0
GRID*               4298               0-7.250000004E+000.0000000000E+00+
*       4.3923063907E+00               0
GRID*               4299               0-6.500000001E+000.0000000000E+00+
*       4.1961531956E+00               0
GRID*               4300               0-6.750000002E+000.0000000000E+00+
*       4.3923063910E+00               0
GRID*               4301               0-6.000000001E+000.0000000000E+00+
*       4.1961531956E+00               0
GRID*               4302               0-6.250000001E+000.0000000000E+00+
*       4.3923063912E+00               0
GRID*               4303               0-5.500000000E+000.0000000000E+00+
*       4.1961531957E+00               0
GRID*               4304               0-5.750000001E+000.0000000000E+00+
*       4.3923063913E+00               0
GRID*               4305               0-5.000000000E+000.0000000000E+00+
*       4.1961531957E+00               0
GRID*               4306               0-5.250000001E+000.0000000000E+00+
*       4.3923063913E+00               0
GRID*               4307               0-4.500000000E+000.0000000000E+00+
*       4.1961531955E+00               0
GRID*               4308               0-4.750000000E+000.0000000000E+00+
*       4.3923063912E+00               0
GRID*               4309               0-4.000000000E+000.0000000000E+00+
*       4.1961531949E+00               0
GRID*               4310               0-4.250000000E+000.0000000000E+00+
*       4.3923063905E+00               0
GRID*               4311               0-3.500000000E+000.0000000000E+00+
*       4.1961531930E+00               0
GRID*               4312               0-3.750000000E+000.0000000000E+00+
*       4.3923063880E+00               0
GRID*               4313               0-3.000000000E+000.0000000000E+00+
*       4.1961531866E+00               0
GRID*               4314               0-3.250000000E+000.0000000000E+00+
*       4.3923063796E+00               0
GRID*               4315               0-2.500000000E+000.0000000000E+00+
*       4.1961531661E+00               0
GRID*               4316               0-2.750000000E+000.0000000000E+00+
*       4.3923063527E+00               0
GRID*               4317               0-2.000000000E+000.0000000000E+00+
*       4.1961531010E+00               0
GRID*               4318               0-2.250000000E+000.0000000000E+00+
*       4.3923062671E+00               0
GRID*               4319               0-1.500000000E+000.0000000000E+00+
*       4.1961529001E+00               0
GRID*               4320               0-1.750000000E+000.0000000000E+00+
*       4.3923060011E+00               0
GRID*               4321               0-1.000000000E+000.0000000000E+00+
*       4.1961522926E+00               0
GRID*               4322               0-1.250000000E+000.0000000000E+00+
*       4.3923051927E+00               0
GRID*               4323               0-5.000000000E-010.0000000000E+00+
*       4.1961504989E+00               0
GRID*               4324               0-7.500000000E-010.0000000000E+00+
*       4.3923027915E+00               0
GRID*               4325               0-1.332975397E-120.0000000000E+00+
*       4.1961455991E+00               0
GRID*               4326               0-2.500000000E-010.0000000000E+00+
*       4.3922960980E+00               0
GRID*               4327               05.0000000000E-010.0000000000E+00+
*       4.1961338338E+00               0
GRID*               4328               02.5000000000E-010.0000000000E+00+
*       4.3922794329E+00               0
GRID*               4329               01.0000000000E+000.0000000000E+00+
*       4.1961097021E+00               0
GRID*               4330               07.5000000000E-010.0000000000E+00+
*       4.3922435359E+00               0
GRID*               4331               01.5000000000E+000.0000000000E+00+
*       4.1960703770E+00               0
GRID*               4332               01.2500000000E+000.0000000000E+00+
*       4.3921800791E+00               0
GRID*               4333               02.0000000000E+000.0000000000E+00+
*       4.1960445925E+00               0
GRID*               4334               01.7500000000E+000.0000000000E+00+
*       4.3921149695E+00               0
GRID*               4335               02.5000000000E+000.0000000000E+00+
*       4.1962805601E+00               0
GRID*               4336               02.2500000000E+000.0000000000E+00+
*       4.3923251526E+00               0
GRID*               4337               03.0000000000E+000.0000000000E+00+
*       4.1962405550E+00               0
GRID*               4338               02.7500000000E+000.0000000000E+00+
*       4.3925211151E+00               0
GRID*               4339               03.5000000000E+000.0000000000E+00+
*       4.1961940653E+00               0
GRID*               4340               03.2500000000E+000.0000000000E+00+
*       4.3924346204E+00               0
GRID*               4341               04.0000000000E+000.0000000000E+00+
*       4.1961681150E+00               0
GRID*               4342               03.7500000000E+000.0000000000E+00+
*       4.3923621804E+00               0
GRID*               4343               04.5000000000E+000.0000000000E+00+
*       4.1961574925E+00               0
GRID*               4344               04.2500000000E+000.0000000000E+00+
*       4.3923256075E+00               0
GRID*               4345               05.0000000000E+000.0000000000E+00+
*       4.1961542373E+00               0
GRID*               4346               04.7500000000E+000.0000000000E+00+
*       4.3923117298E+00               0
GRID*               4347               05.5000000000E+000.0000000000E+00+
*       4.1961534329E+00               0
GRID*               4348               05.2500000000E+000.0000000000E+00+
*       4.3923076702E+00               0
GRID*               4349               06.0000000000E+000.0000000000E+00+
*       4.1961532488E+00               0
GRID*               4350               05.7500000000E+000.0000000000E+00+
*       4.3923066818E+00               0
GRID*               4351               06.5000000000E+000.0000000000E+00+
*       4.1961532068E+00               0
GRID*               4352               06.2500000000E+000.0000000000E+00+
*       4.3923064557E+00               0
GRID*               4353               07.0000000000E+000.0000000000E+00+
*       4.1961531956E+00               0
GRID*               4354               06.7500000000E+000.0000000000E+00+
*       4.3923064024E+00               0
GRID*               4355               07.5000000000E+000.0000000000E+00+
*       4.1961531872E+00               0
GRID*               4356               07.2500000000E+000.0000000000E+00+
*       4.3923063828E+00               0
GRID*               4357               08.0000000000E+000.0000000000E+00+
*       4.1961531662E+00               0
GRID*               4358               07.7500000000E+000.0000000000E+00+
*       4.3923063534E+00               0
GRID*               4359               08.5000000000E+000.0000000000E+00+
*       4.1961531011E+00               0
GRID*               4360               08.2500000000E+000.0000000000E+00+
*       4.3923062673E+00               0
GRID*               4361               09.0000000000E+000.0000000000E+00+
*       4.1961529001E+00               0
GRID*               4362               08.7500000001E+000.0000000000E+00+
*       4.3923060011E+00               0
GRID*               4363               09.5000000001E+000.0000000000E+00+
*       4.1961522926E+00               0
GRID*               4364               09.2500000001E+000.0000000000E+00+
*       4.3923051927E+00               0
GRID*               4365               01.0000000000E+010.0000000000E+00+
*       4.1961504989E+00               0
GRID*               4366               09.7500000003E+000.0000000000E+00+
*       4.3923027915E+00               0
GRID*               4367               01.0500000000E+010.0000000000E+00+
*       4.1961455990E+00               0
GRID*               4368               01.0250000001E+010.0000000000E+00+
*       4.3922960979E+00               0
GRID*               4369               01.1000000001E+010.0000000000E+00+
*       4.1961338335E+00               0
GRID*               4370               01.0750000001E+010.0000000000E+00+
*       4.3922794325E+00               0
GRID*               4371               01.1500000002E+010.0000000000E+00+
*       4.1961097012E+00               0
GRID*               4372               01.1250000003E+010.0000000000E+00+
*       4.3922435348E+00               0
GRID*               4373               01.2000000004E+010.0000000000E+00+
*       4.1960703744E+00               0
GRID*               4374               01.1750000006E+010.0000000000E+00+
*       4.3921800756E+00               0
GRID*               4375               01.2500000007E+010.0000000000E+00+
*       4.1960445840E+00               0
GRID*               4376               01.2250000011E+010.0000000000E+00+
*       4.3921149584E+00               0
GRID*               4377               01.3000000014E+010.0000000000E+00+
*       4.1962805283E+00               0
GRID*               4378               01.2750000021E+010.0000000000E+00+
*       4.3923251123E+00               0
GRID*               4379               01.3500000024E+010.0000000000E+00+
*       4.1962404556E+00               0
GRID*               4380               01.3250000038E+010.0000000000E+00+
*       4.3925209839E+00               0
GRID*               4381               01.4000000041E+010.0000000000E+00+
*       4.1961937603E+00               0
GRID*               4382               01.3750000065E+010.0000000000E+00+
*       4.3924342160E+00               0
GRID*               4383               01.4500000065E+010.0000000000E+00+
*       4.1961671931E+00               0
GRID*               4384               01.4250000105E+010.0000000000E+00+
*       4.3923609534E+00               0
GRID*               4385               01.5000000093E+010.0000000000E+00+
*       4.1961547541E+00               0
GRID*               4386               01.4750000158E+010.0000000000E+00+
*       4.3923219472E+00               0
GRID*               4387               01.5500000115E+010.0000000000E+00+
*       4.1961465373E+00               0
GRID*               4388               01.5250000208E+010.0000000000E+00+
*       4.3923012913E+00               0
GRID*               4389               01.6000000101E+010.0000000000E+00+
*       4.1961337791E+00               0
GRID*               4390               01.5750000217E+010.0000000000E+00+
*       4.3922803163E+00               0
GRID*               4391               01.6499999977E+010.0000000000E+00+
*       4.1961088559E+00               0
GRID*               4392               01.6250000078E+010.0000000000E+00+
*       4.3922426350E+00               0
GRID*               4393               01.6999999577E+010.0000000000E+00+
*       4.1960675011E+00               0
GRID*               4394               01.6749999554E+010.0000000000E+00+
*       4.3921763571E+00               0
GRID*               4395               01.7499998535E+010.0000000000E+00+
*       4.1960354988E+00               0
GRID*               4396               01.7249998113E+010.0000000000E+00+
*       4.3921029999E+00               0
GRID*               4397               01.7999995982E+010.0000000000E+00+
*       4.1962539215E+00               0
GRID*               4398               01.7749994517E+010.0000000000E+00+
*       4.3922894203E+00               0
GRID*               4399               01.8499990421E+010.0000000000E+00+
*       4.1961740918E+00               0
GRID*               4400               01.8249986403E+010.0000000000E+00+
*       4.3924280134E+00               0
GRID*               4401               01.8999978158E+010.0000000000E+00+
*       4.1960490794E+00               0
GRID*               4402               01.8749968579E+010.0000000000E+00+
*       4.3922231713E+00               0
GRID*               4403               01.9499950732E+010.0000000000E+00+
*       4.1959179057E+00               0
GRID*               4404               01.9249928889E+010.0000000000E+00+
*       4.3919669851E+00               0
GRID*               4405               01.9999884495E+010.0000000000E+00+
*       4.1960476733E+00               0
GRID*               4406               01.9749835227E+010.0000000000E+00+
*       4.3919655791E+00               0
GRID*               4407               02.0499727808E+010.0000000000E+00+
*       4.1961372645E+00               0
GRID*               4408               02.0249612304E+010.0000000000E+00+
*       4.3921849378E+00               0
GRID*               4409               02.0999395819E+010.0000000000E+00+
*       4.1961669028E+00               0
GRID*               4410               02.0749123628E+010.0000000000E+00+
*       4.3923041673E+00               0
GRID*               4411               02.1498844438E+010.0000000000E+00+
*       4.1961670291E+00               0
GRID*               4412               02.1248240258E+010.0000000000E+00+
*       4.3923339320E+00               0
GRID*               4413               02.1998685503E+010.0000000000E+00+
*       4.1964511497E+00               0
GRID*               4414               02.1747529941E+010.0000000000E+00+
*       4.3926964002E+00               0
GRID*               4415               02.2495576230E+010.0000000000E+00+
*       4.1999047523E+00               0
GRID*               4416               02.2253185061E+010.0000000000E+00+
*       4.3965905670E+00               0
GRID*               4417               02.3124503265E+010.0000000000E+00+
*       4.2094867098E+00               0
GRID*               4418               02.2844315791E+010.0000000000E+00+
*       4.4295060943E+00               0
GRID*               4419               02.3719145605E+010.0000000000E+00+
*       4.0273710779E+00               0
GRID*               4420               02.3495405192E+010.0000000000E+00+
*       4.3375182680E+00               0
GRID*               4421               02.4251166432E+010.0000000000E+00+
*       3.8230580953E+00               0
GRID*               4422               02.4075790476E+010.0000000000E+00+
*       4.1115722327E+00               0
GRID*               4423               02.4819642324E+010.0000000000E+00+
*       3.5560921171E+00               0
GRID*               4424               02.4658386684E+010.0000000000E+00+
*       3.8768106543E+00               0
GRID*               4425               02.5270286967E+010.0000000000E+00+
*       3.1508732018E+00               0
GRID*               4426               02.5198537987E+010.0000000000E+00+
*       3.5124404699E+00               0
GRID*               4427               02.5658860762E+010.0000000000E+00+
*       2.7569991011E+00               0
GRID*               4428               02.5607469053E+010.0000000000E+00+
*       3.0861937262E+00               0
GRID*               4429               02.6019164181E+010.0000000000E+00+
*       2.3209558340E+00               0
GRID*               4430               02.5983500323E+010.0000000000E+00+
*       2.6865636509E+00               0
GRID*               4431               02.6399084751E+010.0000000000E+00+
*       1.7914916680E+00               0
GRID*               4432               02.6415909441E+010.0000000000E+00+
*       2.2000250385E+00               0
GRID*               4433               02.6568968446E+010.0000000000E+00+
*       1.1335602077E+00               0
GRID*               4434               02.6729195790E+010.0000000000E+00+
*       1.5305302053E+00               0
GRID*               4435               02.6655921958E+010.0000000000E+00+
*       5.4875075456E-01               0
GRID*               4436               02.6825628651E+010.0000000000E+00+
*       8.3407879250E-01               0
GRID*               4437               02.6682837593E+010.0000000000E+00+
*       -2.433756009E-02               0
GRID*               4438               02.6858470838E+010.0000000000E+00+
*       2.3973746224E-01               0
GRID*               4439               02.6651344259E+010.0000000000E+00+
*       -5.989195220E-01               0
GRID*               4440               02.6853893139E+010.0000000000E+00+
*       -3.385813498E-01               0
GRID*               4441               02.6553287691E+010.0000000000E+00+
*       -1.182323181E+00               0
GRID*               4442               02.6805370197E+010.0000000000E+00+
*       -9.330105337E-01               0
GRID*               4443               02.6360707645E+010.0000000000E+00+
*       -1.723753094E+00               0
GRID*               4444               02.6675137929E+010.0000000000E+00+
*       -1.511554605E+00               0
GRID*               4445               02.6518262430E+010.0000000000E+00+
*       -2.043257811E+00               0
GRID*               4446               02.6948227396E+010.0000000000E+00+
*       -2.159142864E+00               0
GRID*               4447               02.6785476643E+010.0000000000E+00+
*       -1.858671926E+00               0
GRID*               4448               02.7298949328E+010.0000000000E+00+
*       -2.278029219E+00               0
GRID*               4449               02.7137778569E+010.0000000000E+00+
*       -2.020849940E+00               0
GRID*               4450               02.7651116937E+010.0000000000E+00+
*       -2.141565808E+00               0
GRID*               4451               02.7430039050E+010.0000000000E+00+
*       -2.009483180E+00               0
GRID*               4452               02.7750216579E+010.0000000000E+00+
*       -1.810554123E+00               0
GRID*               4453               02.7519799345E+010.0000000000E+00+
*       -1.296405889E+00               0
GRID*               4454               02.7423054803E+010.0000000000E+00+
*       -1.651601513E+00               0
GRID*               4455               02.7458115485E+010.0000000000E+00+
*       -6.743383067E-01               0
GRID*               4456               02.7262814717E+010.0000000000E+00+
*       -1.036091304E+00               0
GRID*               4457               02.7431756107E+010.0000000000E+00+
*       -1.155622749E-01               0
GRID*               4458               02.7248549973E+010.0000000000E+00+
*       -3.872988791E-01               0
GRID*               4459               02.7442071215E+010.0000000000E+00+
*       4.3624766125E-01               0
GRID*               4460               02.7247306447E+010.0000000000E+00+
*       1.8634927452E-01               0
GRID*               4461               02.7489992998E+010.0000000000E+00+
*       9.9912459785E-01               0
GRID*               4462               02.7261186787E+010.0000000000E+00+
*       7.6572782141E-01               0
GRID*               4463               02.7581201223E+010.0000000000E+00+
*       1.6252613774E+00               0
GRID*               4464               02.7297339876E+010.0000000000E+00+
*       1.4275619394E+00               0
GRID*               4465               02.7854754753E+010.0000000000E+00+
*       2.1249245851E+00               0
GRID*               4466               02.7501756502E+010.0000000000E+00+
*       2.0407124351E+00               0
GRID*               4467               02.8113525299E+010.0000000000E+00+
*       2.5853635031E+00               0
GRID*               4468               02.7818313946E+010.0000000000E+00+
*       2.5089145967E+00               0
GRID*               4469               02.8404293662E+010.0000000000E+00+
*       3.0224285914E+00               0
GRID*               4470               02.8099281453E+010.0000000000E+00+
*       2.9412391646E+00               0
GRID*               4471               02.8735271334E+010.0000000000E+00+
*       3.4336924120E+00               0
GRID*               4472               02.8402912821E+010.0000000000E+00+
*       3.3567581073E+00               0
GRID*               4473               02.9107391325E+010.0000000000E+00+
*       3.8180536137E+00               0
GRID*               4474               02.8742214733E+010.0000000000E+00+
*       3.7571952552E+00               0
GRID*               4475               02.9549849436E+010.0000000000E+00+
*       4.2363460347E+00               0
GRID*               4476               02.9151730532E+010.0000000000E+00+
*       4.2070793455E+00               0
GRID*               4477               02.9724186242E+010.0000000000E+00+
*       4.5859069519E+00               0
GRID*               4478               02.9739329558E+010.0000000000E+00+
*       5.1007536407E+00               0
GRID*               4479               02.9415392307E+010.0000000000E+00+
*       4.7559033307E+00               0
GRID*               4480               02.9464747803E+010.0000000000E+00+
*       5.2957696273E+00               0
GRID*               4481               02.8917563345E+010.0000000000E+00+
*       5.2993739257E+00               0
GRID*               4482               02.9165187548E+010.0000000000E+00+
*       5.0572811646E+00               0
GRID*               4483               02.8412520218E+010.0000000000E+00+
*       5.3249790808E+00               0
GRID*               4484               02.8629586233E+010.0000000000E+00+
*       5.0824432589E+00               0
GRID*               4485               02.7933016338E+010.0000000000E+00+
*       5.3409217833E+00               0
GRID*               4486               02.8142738140E+010.0000000000E+00+
*       5.1121721709E+00               0
GRID*               4487               02.7465647560E+010.0000000000E+00+
*       5.3627946740E+00               0
GRID*               4488               02.7679749395E+010.0000000000E+00+
*       5.1377659196E+00               0
GRID*               4489               02.7017922632E+010.0000000000E+00+
*       5.3801349451E+00               0
GRID*               4490               02.7237460388E+010.0000000000E+00+
*       5.1666774405E+00               0
GRID*               4491               02.6584400842E+010.0000000000E+00+
*       5.3656514219E+00               0
GRID*               4492               02.6821731994E+010.0000000000E+00+
*       5.1728359842E+00               0
GRID*               4493               02.6098010642E+010.0000000000E+00+
*       5.2531833933E+00               0
GRID*               4494               02.6381779170E+010.0000000000E+00+
*       5.0757461975E+00               0
GRID*               4495               02.5534674529E+010.0000000000E+00+
*       5.3052202463E+00               0
GRID*               4496               02.5843097516E+010.0000000000E+00+
*       5.0293305140E+00               0
GRID*               4497               02.5028590534E+010.0000000000E+00+
*       5.3382789444E+00               0
GRID*               4498               02.5289014658E+010.0000000000E+00+
*       5.0963631078E+00               0
GRID*               4499               02.4550480233E+010.0000000000E+00+
*       5.3587240672E+00               0
GRID*               4500               02.4801310932E+010.0000000000E+00+
*       5.1355868218E+00               0
GRID*               4501               02.4086062880E+010.0000000000E+00+
*       5.3460809764E+00               0
GRID*               4502               02.4346504447E+010.0000000000E+00+
*       5.1445308595E+00               0
GRID*               4503               02.3537744472E+010.0000000000E+00+
*       5.2346177366E+00               0
GRID*               4504               02.3839795644E+010.0000000000E+00+
*       5.0460376880E+00               0
GRID*               4505               02.2977760727E+010.0000000000E+00+
*       5.3431723745E+00               0
GRID*               4506               02.3259005755E+010.0000000000E+00+
*       5.0419037780E+00               0
GRID*               4507               02.2483962556E+010.0000000000E+00+
*       5.3732548357E+00               0
GRID*               4508               02.2720771846E+010.0000000000E+00+
*       5.1491457374E+00               0
GRID*               4509               02.1991682237E+010.0000000000E+00+
*       5.3838112587E+00               0
GRID*               4510               02.2233363512E+010.0000000000E+00+
*       5.1748474181E+00               0
GRID*               4511               02.1496059077E+010.0000000000E+00+
*       5.3875139084E+00               0
GRID*               4512               02.1742095735E+010.0000000000E+00+
*       5.1832429353E+00               0
GRID*               4513               02.0998213760E+010.0000000000E+00+
*       5.3887273340E+00               0
GRID*               4514               02.1246403267E+010.0000000000E+00+
*       5.1860761605E+00               0
GRID*               4515               02.0499214697E+010.0000000000E+00+
*       5.3890174496E+00               0
GRID*               4516               02.0748402202E+010.0000000000E+00+
*       5.1869347704E+00               0
GRID*               4517               01.9999660332E+010.0000000000E+00+
*       5.3889506032E+00               0
GRID*               4518               02.0249304528E+010.0000000000E+00+
*       5.1870442962E+00               0
GRID*               4519               01.9499853387E+010.0000000000E+00+
*       5.3887991934E+00               0
GRID*               4520               01.9749700381E+010.0000000000E+00+
*       5.1868782971E+00               0
GRID*               4521               01.8999936361E+010.0000000000E+00+
*       5.3890341957E+00               0
GRID*               4522               01.9249870567E+010.0000000000E+00+
*       5.1869339112E+00               0
GRID*               4523               01.8499972684E+010.0000000000E+00+
*       5.3892578067E+00               0
GRID*               4524               01.8749943854E+010.0000000000E+00+
*       5.1872549115E+00               0
GRID*               4525               01.7999988698E+010.0000000000E+00+
*       5.3893498894E+00               0
GRID*               4526               01.8249976053E+010.0000000000E+00+
*       5.1874772632E+00               0
GRID*               4527               01.7499995788E+010.0000000000E+00+
*       5.3890242613E+00               0
GRID*               4528               01.7749990317E+010.0000000000E+00+
*       5.1873064097E+00               0
GRID*               4529               01.6999998715E+010.0000000000E+00+
*       5.3890691038E+00               0
GRID*               4530               01.7249996525E+010.0000000000E+00+
*       5.1871054711E+00               0
GRID*               4531               01.6499999841E+010.0000000000E+00+
*       5.3891408040E+00               0
GRID*               4532               01.6749999042E+010.0000000000E+00+
*       5.1871953625E+00               0
GRID*               4533               01.6000000203E+010.0000000000E+00+
*       5.3891875492E+00               0
GRID*               4534               01.6249999979E+010.0000000000E+00+
*       5.1872748800E+00               0
GRID*               4535               01.5500000261E+010.0000000000E+00+
*       5.3892123428E+00               0
GRID*               4536               01.5750000255E+010.0000000000E+00+
*       5.1873209580E+00               0
GRID*               4537               01.5000000217E+010.0000000000E+00+
*       5.3892286535E+00               0
GRID*               4538               01.5250000276E+010.0000000000E+00+
*       5.1873477676E+00               0
GRID*               4539               01.4500000152E+010.0000000000E+00+
*       5.3892567841E+00               0
GRID*               4540               01.4750000217E+010.0000000000E+00+
*       5.1873776552E+00               0
GRID*               4541               01.4000000097E+010.0000000000E+00+
*       5.3893164184E+00               0
GRID*               4542               01.4250000148E+010.0000000000E+00+
*       5.1874358158E+00               0
GRID*               4543               01.3500000058E+010.0000000000E+00+
*       5.3893978444E+00               0
GRID*               4544               01.3750000092E+010.0000000000E+00+
*       5.1875309352E+00               0
GRID*               4545               01.3000000033E+010.0000000000E+00+
*       5.3894116237E+00               0
GRID*               4546               01.3250000054E+010.0000000000E+00+
*       5.1876068003E+00               0
GRID*               4547               01.2500000018E+010.0000000000E+00+
*       5.3890485293E+00               0
GRID*               4548               01.2750000031E+010.0000000000E+00+
*       5.1873612425E+00               0
GRID*               4549               01.2000000009E+010.0000000000E+00+
*       5.3890781535E+00               0
GRID*               4550               01.2250000017E+010.0000000000E+00+
*       5.1871266544E+00               0
GRID*               4551               01.1500000005E+010.0000000000E+00+
*       5.3891440485E+00               0
GRID*               4552               01.1750000008E+010.0000000000E+00+
*       5.1872031990E+00               0
GRID*               4553               01.1000000002E+010.0000000000E+00+
*       5.3891886286E+00               0
GRID*               4554               01.1250000004E+010.0000000000E+00+
*       5.1872776289E+00               0
GRID*               4555               01.0500000001E+010.0000000000E+00+
*       5.3892121280E+00               0
GRID*               4556               01.0750000002E+010.0000000000E+00+
*       5.1873213325E+00               0
GRID*               4557               01.0000000000E+010.0000000000E+00+
*       5.3892229405E+00               0
GRID*               4558               01.0250000001E+010.0000000000E+00+
*       5.1873430339E+00               0
GRID*               4559               09.5000000002E+000.0000000000E+00+
*       5.3892274735E+00               0
GRID*               4560               09.7500000004E+000.0000000000E+00+
*       5.1873527140E+00               0
GRID*               4561               09.0000000001E+000.0000000000E+00+
*       5.3892292494E+00               0
GRID*               4562               09.2500000002E+000.0000000000E+00+
*       5.1873567011E+00               0
GRID*               4563               08.5000000000E+000.0000000000E+00+
*       5.3892299098E+00               0
GRID*               4564               08.7500000001E+000.0000000000E+00+
*       5.1873582469E+00               0
GRID*               4565               08.0000000000E+000.0000000000E+00+
*       5.3892301453E+00               0
GRID*               4566               08.2500000000E+000.0000000000E+00+
*       5.1873588183E+00               0
GRID*               4567               07.5000000000E+000.0000000000E+00+
*       5.3892302264E+00               0
GRID*               4568               07.7500000000E+000.0000000000E+00+
*       5.1873590214E+00               0
GRID*               4569               07.0000000000E+000.0000000000E+00+
*       5.3892302540E+00               0
GRID*               4570               07.2500000000E+000.0000000000E+00+
*       5.1873590918E+00               0
GRID*               4571               06.5000000000E+000.0000000000E+00+
*       5.3892302654E+00               0
GRID*               4572               06.7500000000E+000.0000000000E+00+
*       5.1873591177E+00               0
GRID*               4573               06.0000000000E+000.0000000000E+00+
*       5.3892302810E+00               0
GRID*               4574               06.2500000000E+000.0000000000E+00+
*       5.1873591382E+00               0
GRID*               4575               05.5000000000E+000.0000000000E+00+
*       5.3892303450E+00               0
GRID*               4576               05.7500000000E+000.0000000000E+00+
*       5.1873592038E+00               0
GRID*               4577               05.0000000000E+000.0000000000E+00+
*       5.3892308986E+00               0
GRID*               4578               05.2500000000E+000.0000000000E+00+
*       5.1873597611E+00               0
GRID*               4579               04.5000000000E+000.0000000000E+00+
*       5.3892361369E+00               0
GRID*               4580               04.7500000000E+000.0000000000E+00+
*       5.1873642272E+00               0
GRID*               4581               04.0000000000E+000.0000000000E+00+
*       5.3892596406E+00               0
GRID*               4582               04.2500000000E+000.0000000000E+00+
*       5.1873842073E+00               0
GRID*               4583               03.5000000000E+000.0000000000E+00+
*       5.3893174629E+00               0
GRID*               4584               03.7500000000E+000.0000000000E+00+
*       5.1874382978E+00               0
GRID*               4585               03.0000000000E+000.0000000000E+00+
*       5.3893982135E+00               0
GRID*               4586               03.2500000000E+000.0000000000E+00+
*       5.1875318390E+00               0
GRID*               4587               02.5000000000E+000.0000000000E+00+
*       5.3894117506E+00               0
GRID*               4588               02.7500000000E+000.0000000000E+00+
*       5.1876071191E+00               0
GRID*               4589               02.0000000000E+000.0000000000E+00+
*       5.3890485699E+00               0
GRID*               4590               02.2500000000E+000.0000000000E+00+
*       5.1873613504E+00               0
GRID*               4591               01.5000000000E+000.0000000000E+00+
*       5.3890781665E+00               0
GRID*               4592               01.7500000000E+000.0000000000E+00+
*       5.1871266887E+00               0
GRID*               4593               01.0000000000E+000.0000000000E+00+
*       5.3891440527E+00               0
GRID*               4594               01.2500000000E+000.0000000000E+00+
*       5.1872032101E+00               0
GRID*               4595               05.0000000000E-010.0000000000E+00+
*       5.3891886300E+00               0
GRID*               4596               07.5000000000E-010.0000000000E+00+
*       5.1872776325E+00               0
GRID*               4597               0-3.775812996E-120.0000000000E+00+
*       5.3892121284E+00               0
GRID*               4598               02.5000000000E-010.0000000000E+00+
*       5.1873213337E+00               0
GRID*               4599               0-5.000000000E-010.0000000000E+00+
*       5.3892229406E+00               0
GRID*               4600               0-2.500000000E-010.0000000000E+00+
*       5.1873430342E+00               0
GRID*               4601               0-1.000000000E+000.0000000000E+00+
*       5.3892274735E+00               0
GRID*               4602               0-7.500000000E-010.0000000000E+00+
*       5.1873527142E+00               0
GRID*               4603               0-1.500000000E+000.0000000000E+00+
*       5.3892292494E+00               0
GRID*               4604               0-1.250000000E+000.0000000000E+00+
*       5.1873567011E+00               0
GRID*               4605               0-2.000000000E+000.0000000000E+00+
*       5.3892299098E+00               0
GRID*               4606               0-1.750000000E+000.0000000000E+00+
*       5.1873582469E+00               0
GRID*               4607               0-2.500000000E+000.0000000000E+00+
*       5.3892301452E+00               0
GRID*               4608               0-2.250000000E+000.0000000000E+00+
*       5.1873588182E+00               0
GRID*               4609               0-3.000000000E+000.0000000000E+00+
*       5.3892302262E+00               0
GRID*               4610               0-2.750000000E+000.0000000000E+00+
*       5.1873590213E+00               0
GRID*               4611               0-3.500000000E+000.0000000000E+00+
*       5.3892302533E+00               0
GRID*               4612               0-3.250000000E+000.0000000000E+00+
*       5.1873590911E+00               0
GRID*               4613               0-4.000000000E+000.0000000000E+00+
*       5.3892302621E+00               0
GRID*               4614               0-3.750000000E+000.0000000000E+00+
*       5.1873591144E+00               0
GRID*               4615               0-4.500000000E+000.0000000000E+00+
*       5.3892302648E+00               0
GRID*               4616               0-4.250000000E+000.0000000000E+00+
*       5.1873591219E+00               0
GRID*               4617               0-5.000000001E+000.0000000000E+00+
*       5.3892302656E+00               0
GRID*               4618               0-4.750000001E+000.0000000000E+00+
*       5.1873591243E+00               0
GRID*               4619               0-5.500000001E+000.0000000000E+00+
*       5.3892302658E+00               0
GRID*               4620               0-5.250000001E+000.0000000000E+00+
*       5.1873591249E+00               0
GRID*               4621               0-6.000000002E+000.0000000000E+00+
*       5.3892302657E+00               0
GRID*               4622               0-5.750000001E+000.0000000000E+00+
*       5.1873591250E+00               0
GRID*               4623               0-6.500000002E+000.0000000000E+00+
*       5.3892302655E+00               0
GRID*               4624               0-6.250000002E+000.0000000000E+00+
*       5.1873591249E+00               0
GRID*               4625               0-7.000000004E+000.0000000000E+00+
*       5.3892302651E+00               0
GRID*               4626               0-6.750000004E+000.0000000000E+00+
*       5.1873591245E+00               0
GRID*               4627               0-7.500000006E+000.0000000000E+00+
*       5.3892302645E+00               0
GRID*               4628               0-7.250000006E+000.0000000000E+00+
*       5.1873591239E+00               0
GRID*               4629               0-8.000000010E+000.0000000000E+00+
*       5.3892302635E+00               0
GRID*               4630               0-7.750000010E+000.0000000000E+00+
*       5.1873591229E+00               0
GRID*               4631               0-8.500000016E+000.0000000000E+00+
*       5.3892302619E+00               0
GRID*               4632               0-8.250000015E+000.0000000000E+00+
*       5.1873591214E+00               0
GRID*               4633               0-9.000000025E+000.0000000000E+00+
*       5.3892302593E+00               0
GRID*               4634               0-8.750000024E+000.0000000000E+00+
*       5.1873591189E+00               0
GRID*               4635               0-9.500000039E+000.0000000000E+00+
*       5.3892302553E+00               0
GRID*               4636               0-9.250000038E+000.0000000000E+00+
*       5.1873591149E+00               0
GRID*               4637               0-1.000000006E+010.0000000000E+00+
*       5.3892302488E+00               0
GRID*               4638               0-9.750000059E+000.0000000000E+00+
*       5.1873591086E+00               0
GRID*               4639               0-1.050000009E+010.0000000000E+00+
*       5.3892302386E+00               0
GRID*               4640               0-1.025000009E+010.0000000000E+00+
*       5.1873590987E+00               0
GRID*               4641               0-1.100000015E+010.0000000000E+00+
*       5.3892302225E+00               0
GRID*               4642               0-1.075000014E+010.0000000000E+00+
*       5.1873590829E+00               0
GRID*               4643               0-1.150000022E+010.0000000000E+00+
*       5.3892301974E+00               0
GRID*               4644               0-1.125000022E+010.0000000000E+00+
*       5.1873590583E+00               0
GRID*               4645               0-1.200000034E+010.0000000000E+00+
*       5.3892301586E+00               0
GRID*               4646               0-1.175000034E+010.0000000000E+00+
*       5.1873590202E+00               0
GRID*               4647               0-1.250000052E+010.0000000000E+00+
*       5.3892301000E+00               0
GRID*               4648               0-1.225000052E+010.0000000000E+00+
*       5.1873589623E+00               0
GRID*               4649               0-1.300000079E+010.0000000000E+00+
*       5.3892300145E+00               0
GRID*               4650               0-1.275000078E+010.0000000000E+00+
*       5.1873588770E+00               0
GRID*               4651               0-1.350000118E+010.0000000000E+00+
*       5.3892298948E+00               0
GRID*               4652               0-1.325000118E+010.0000000000E+00+
*       5.1873587557E+00               0
GRID*               4653               0-1.400000181E+010.0000000000E+00+
*       5.3892297339E+00               0
GRID*               4654               0-1.375000180E+010.0000000000E+00+
*       5.1873585903E+00               0
GRID*               4655               0-1.450000291E+010.0000000000E+00+
*       5.3892295226E+00               0
GRID*               4656               0-1.425000286E+010.0000000000E+00+
*       5.1873583714E+00               0
GRID*               4657               0-1.500000506E+010.0000000000E+00+
*       5.3892292431E+00               0
GRID*               4658               0-1.475000487E+010.0000000000E+00+
*       5.1873580844E+00               0
GRID*               4659               0-1.550000955E+010.0000000000E+00+
*       5.3892288702E+00               0
GRID*               4660               0-1.525000898E+010.0000000000E+00+
*       5.1873577139E+00               0
GRID*               4661               0-1.600001919E+010.0000000000E+00+
*       5.3892287023E+00               0
GRID*               4662               0-1.575001773E+010.0000000000E+00+
*       5.1873575820E+00               0
GRID*               4663               0-1.650003979E+010.0000000000E+00+
*       5.3892327252E+00               0
GRID*               4664               0-1.625003642E+010.0000000000E+00+
*       5.1873609287E+00               0
GRID*               4665               0-1.700008342E+010.0000000000E+00+
*       5.3892548227E+00               0
GRID*               4666               0-1.675007606E+010.0000000000E+00+
*       5.1873796207E+00               0
GRID*               4667               0-1.750017524E+010.0000000000E+00+
*       5.3893147531E+00               0
GRID*               4668               0-1.725015960E+010.0000000000E+00+
*       5.1874352373E+00               0
GRID*               4669               0-1.800036788E+010.0000000000E+00+
*       5.3894117753E+00               0
GRID*               4670               0-1.775033490E+010.0000000000E+00+
*       5.1875424626E+00               0
GRID*               4671               0-1.850076974E+010.0000000000E+00+
*       5.3894663451E+00               0
GRID*               4672               0-1.825070068E+010.0000000000E+00+
*       5.1876571041E+00               0
GRID*               4673               0-1.900159789E+010.0000000000E+00+
*       5.3891560663E+00               0
GRID*               4674               0-1.875145675E+010.0000000000E+00+
*       5.1874785048E+00               0
GRID*               4675               0-1.950324992E+010.0000000000E+00+
*       5.3891592362E+00               0
GRID*               4676               0-1.925298358E+010.0000000000E+00+
*       5.1872794694E+00               0
GRID*               4677               0-2.000657212E+010.0000000000E+00+
*       5.3887997081E+00               0
GRID*               4678               0-1.975608383E+010.0000000000E+00+
*       5.1870448714E+00               0
GRID*               4679               0-2.051356935E+010.0000000000E+00+
*       5.3888029003E+00               0
GRID*               4680               0-2.026265175E+010.0000000000E+00+
*       5.1867788975E+00               0
GRID*               4681               0-2.102916656E+010.0000000000E+00+
*       5.3888279802E+00               0
GRID*               4682               0-2.077738605E+010.0000000000E+00+
*       5.1867117936E+00               0
GRID*               4683               0-2.156362721E+010.0000000000E+00+
*       5.3893494665E+00               0
GRID*               4684               0-2.131115309E+010.0000000000E+00+
*       5.1867043705E+00               0
GRID*               4685               0-2.213642610E+010.0000000000E+00+
*       5.3944144046E+00               0
GRID*               4686               0-2.188806872E+010.0000000000E+00+
*       5.1892893922E+00               0
GRID*               4687               0-2.266918398E+010.0000000000E+00+
*       5.4486475010E+00               0
GRID*               4688               0-2.246368451E+010.0000000000E+00+
*       5.2316060523E+00               0
GRID*               4689               0-2.312194848E+010.0000000000E+00+
*       5.5004623455E+00               0
GRID*               4690               0-2.295036623E+010.0000000000E+00+
*       5.3069677206E+00               0
GRID*               4691               0-2.354540898E+010.0000000000E+00+
*       5.5154369619E+00               0
GRID*               4692               0-2.336194172E+010.0000000000E+00+
*       5.3514386558E+00               0
GRID*               4693               0-2.398140409E+010.0000000000E+00+
*       5.5015198013E+00               0
GRID*               4694               0-2.376616837E+010.0000000000E+00+
*       5.3506532391E+00               0
GRID*               4695               0-2.443678516E+010.0000000000E+00+
*       5.4666115362E+00               0
GRID*               4696               0-2.419303159E+010.0000000000E+00+
*       5.3183216601E+00               0
GRID*               4697               0-2.491252532E+010.0000000000E+00+
*       5.4033798621E+00               0
GRID*               4698               0-2.464422312E+010.0000000000E+00+
*       5.2543915151E+00               0
GRID*               4699               0-2.545013907E+010.0000000000E+00+
*       5.2666553773E+00               0
GRID*               4700               0-2.515165987E+010.0000000000E+00+
*       5.1099524534E+00               0
GRID*               4701               0-2.603535686E+010.0000000000E+00+
*       5.2712550044E+00               0
GRID*               4702               0-2.574161576E+010.0000000000E+00+
*       5.0152285002E+00               0
GRID*               4703               0-2.655959591E+010.0000000000E+00+
*       5.3016668883E+00               0
GRID*               4704               0-2.632116364E+010.0000000000E+00+
*       5.0464426204E+00               0
GRID*               4705               0-2.704328525E+010.0000000000E+00+
*       5.3382042432E+00               0
GRID*               4706               0-2.682464404E+010.0000000000E+00+
*       5.0952317633E+00               0
GRID*               4707               0-2.749460033E+010.0000000000E+00+
*       5.3637016828E+00               0
GRID*               4708               0-2.727841161E+010.0000000000E+00+
*       5.1400340681E+00               0
GRID*               4709               0-2.792774221E+010.0000000000E+00+
*       5.3548607861E+00               0
GRID*               4710               0-2.769560421E+010.0000000000E+00+
*       5.1549259614E+00               0
GRID*               4711               0-2.840754822E+010.0000000000E+00+
*       5.2477699239E+00               0
GRID*               4712               0-2.813152882E+010.0000000000E+00+
*       5.0648423572E+00               0
GRID*               4713               0-2.895203100E+010.0000000000E+00+
*       5.2999965692E+00               0
GRID*               4714               0-2.865293679E+010.0000000000E+00+
*       5.0218547144E+00               0
GRID*               4715               0-2.918097643E+010.0000000000E+00+
*       5.0952885814E+00               0
GRID*               4716               0-2.920828185E+010.0000000000E+00+
*       4.6709440313E+00               0
GRID*               4717               0-2.896435705E+010.0000000000E+00+
*       4.8365899780E+00               0
GRID*               4718               0-2.901529038E+010.0000000000E+00+
*       4.3544523608E+00               0
GRID*               4719               02.7290026617E+010.0000000000E+00+
*       2.4591548126E+00               0
GRID*               4720               02.7256727760E+010.0000000000E+00+
*       2.0401325039E+00               0
GRID*               4721               02.7535055360E+010.0000000000E+00+
*       2.4597347437E+00               0
GRID*               4722               02.7791217184E+010.0000000000E+00+
*       2.8750941468E+00               0
GRID*               4723               02.7507958598E+010.0000000000E+00+
*       2.8259142938E+00               0
GRID*               4724               02.8068031867E+010.0000000000E+00+
*       3.2891575267E+00               0
GRID*               4725               02.7759967599E+010.0000000000E+00+
*       3.2230125089E+00               0
GRID*               4726               02.8376439897E+010.0000000000E+00+
*       3.6932481650E+00               0
GRID*               4727               02.8041558944E+010.0000000000E+00+
*       3.6256475844E+00               0
GRID*               4728               02.8713721144E+010.0000000000E+00+
*       4.0568135744E+00               0
GRID*               4729               02.8347946309E+010.0000000000E+00+
*       3.9928664843E+00               0
GRID*               4730               02.9063931648E+010.0000000000E+00+
*       4.5225510430E+00               0
GRID*               4731               02.8625922260E+010.0000000000E+00+
*       4.3722852719E+00               0
GRID*               4732               02.8813726889E+010.0000000000E+00+
*       4.8239288769E+00               0
GRID*               4733               02.8328718542E+010.0000000000E+00+
*       4.8900996756E+00               0
GRID*               4734               02.8512859198E+010.0000000000E+00+
*       4.6315852936E+00               0
GRID*               4735               02.7876301489E+010.0000000000E+00+
*       4.9014570024E+00               0
GRID*               4736               02.8062281891E+010.0000000000E+00+
*       4.6793845071E+00               0
GRID*               4737               02.7426139246E+010.0000000000E+00+
*       4.9479753989E+00               0
GRID*               4738               02.7622691340E+010.0000000000E+00+
*       4.7116664818E+00               0
GRID*               4739               02.7345339372E+010.0000000000E+00+
*       4.5354652263E+00               0
GRID*               4740               02.7540546912E+010.0000000000E+00+
*       4.2476029287E+00               0
GRID*               4741               02.7817898880E+010.0000000000E+00+
*       4.4238041842E+00               0
GRID*               4742               02.7195091484E+010.0000000000E+00+
*       4.1284043873E+00               0
GRID*               4743               02.7305920464E+010.0000000000E+00+
*       3.8153539189E+00               0
GRID*               4744               02.7651375892E+010.0000000000E+00+
*       3.9345524604E+00               0
GRID*               4745               02.6993631401E+010.0000000000E+00+
*       3.7413954055E+00               0
GRID*               4746               02.7076028539E+010.0000000000E+00+
*       3.4252280425E+00               0
GRID*               4747               02.7388317602E+010.0000000000E+00+
*       3.4991865559E+00               0
GRID*               4748               02.6774697346E+010.0000000000E+00+
*       3.3757910102E+00               0
GRID*               4749               02.6846726591E+010.0000000000E+00+
*       3.0522810888E+00               0
GRID*               4750               02.7148057783E+010.0000000000E+00+
*       3.1017181211E+00               0
GRID*               4751               02.6542815280E+010.0000000000E+00+
*       3.0219251110E+00               0
GRID*               4752               02.6616913299E+010.0000000000E+00+
*       2.6741854860E+00               0
GRID*               4753               02.6920824610E+010.0000000000E+00+
*       2.7045414638E+00               0
GRID*               4754               02.7000685447E+010.0000000000E+00+
*       2.3946490646E+00               0
GRID*               4755               02.7210165780E+010.0000000000E+00+
*       2.7690472117E+00               0
GRID*               4756               02.7702434601E+010.0000000000E+00+
*       3.5636138617E+00               0
GRID*               4757               02.7990500235E+010.0000000000E+00+
*       3.9965861831E+00               0
GRID*               4758               02.8224674255E+010.0000000000E+00+
*       4.5017881329E+00               0
GRID*               4759               02.8337737317E+010.0000000000E+00+
*       4.2424881112E+00               0
GRID*               4760               02.7980291243E+010.0000000000E+00+
*       4.2462078101E+00               0
GRID*               4761               02.7445850600E+010.0000000000E+00+
*       3.1585852032E+00               0
GRID*               4762               02.7047729307E+010.0000000000E+00+
*       -6.532508866E-01               0
GRID*               4763               02.7020455608E+010.0000000000E+00+
*       -1.315850952E+00               0
GRID*               4764               02.7130794322E+010.0000000000E+00+
*       -1.662968273E+00               0
GRID*               4765               02.7054713805E+010.0000000000E+00+
*       -7.262934234E-02               0
GRID*               4766               02.7051063479E+010.0000000000E+00+
*       4.9871607910E-01               0
GRID*               4767               02.7035751959E+010.0000000000E+00+
*       1.1010905348E+00               0
GRID*               4768               02.4150486023E+010.0000000000E+00+
*       4.6956725992E+00               0
GRID*               4769               02.4194653661E+010.0000000000E+00+
*       4.9799923675E+00               0
GRID*               4770               02.3795628007E+010.0000000000E+00+
*       4.7617179197E+00               0
GRID*               4771               02.3366832937E+010.0000000000E+00+
*       4.7064971052E+00               0
GRID*               4772               02.3924200261E+010.0000000000E+00+
*       4.3927390824E+00               0
GRID*               4773               02.4408612886E+010.0000000000E+00+
*       4.2027363791E+00               0
GRID*               4774               02.4257022671E+010.0000000000E+00+
*       4.4839032288E+00               0
GRID*               4775               02.4528527643E+010.0000000000E+00+
*       4.5833105914E+00               0
GRID*               4776               02.4421990995E+010.0000000000E+00+
*       4.7950799617E+00               0
GRID*               4777               02.4573841781E+010.0000000000E+00+
*       4.9596184537E+00               0
GRID*               4778               02.4977493380E+010.0000000000E+00+
*       4.0046327697E+00               0
GRID*               4779               02.4727719581E+010.0000000000E+00+
*       4.3305584944E+00               0
GRID*               4780               02.4999593036E+010.0000000000E+00+
*       4.4791119086E+00               0
GRID*               4781               02.4800401098E+010.0000000000E+00+
*       4.7318640056E+00               0
GRID*               4782               02.5027870249E+010.0000000000E+00+
*       4.9078323736E+00               0
GRID*               4783               02.6298081346E+010.0000000000E+00+
*       2.6626923538E+00               0
GRID*               4784               02.6243562917E+010.0000000000E+00+
*       3.0137934056E+00               0
GRID*               4785               02.5928981894E+010.0000000000E+00+
*       3.0376647027E+00               0
GRID*               4786               02.6485709798E+010.0000000000E+00+
*       3.3362194731E+00               0
GRID*               4787               02.6186457436E+010.0000000000E+00+
*       3.3280877678E+00               0
GRID*               4788               02.6703322093E+010.0000000000E+00+
*       3.6729189707E+00               0
GRID*               4789               02.6414334545E+010.0000000000E+00+
*       3.6333474337E+00               0
GRID*               4790               02.5220013079E+010.0000000000E+00+
*       4.2417943989E+00               0
GRID*               4791               02.5239142315E+010.0000000000E+00+
*       3.7902421326E+00               0
GRID*               4792               02.5481662014E+010.0000000000E+00+
*       4.0274037617E+00               0
GRID*               4793               02.5640225790E+010.0000000000E+00+
*       3.8717765142E+00               0
GRID*               4794               02.5812543698E+010.0000000000E+00+
*       4.0415457055E+00               0
GRID*               4795               02.5653979922E+010.0000000000E+00+
*       4.1971729530E+00               0
GRID*               4796               02.5581520318E+010.0000000000E+00+
*       3.3892697114E+00               0
GRID*               4797               02.5903033159E+010.0000000000E+00+
*       3.3407406879E+00               0
GRID*               4798               02.6154562390E+010.0000000000E+00+
*       3.5988180449E+00               0
GRID*               4799               02.5871138113E+010.0000000000E+00+
*       3.6114709649E+00               0
GRID*               4800               02.6347789345E+010.0000000000E+00+
*       3.8984701413E+00               0
GRID*               4801               02.6088017190E+010.0000000000E+00+
*       3.8639407525E+00               0
GRID*               4802               02.5520888916E+010.0000000000E+00+
*       4.8520143701E+00               0
GRID*               4803               02.5728874163E+010.0000000000E+00+
*       4.5811615620E+00               0
GRID*               4804               02.6051082763E+010.0000000000E+00+
*       4.7584777058E+00               0
GRID*               4805               02.5259744507E+010.0000000000E+00+
*       4.6634836359E+00               0
GRID*               4806               02.5480164550E+010.0000000000E+00+
*       4.4261661262E+00               0
GRID*               4807               02.5902689535E+010.0000000000E+00+
*       4.3521683888E+00               0
GRID*               4808               02.6011321631E+010.0000000000E+00+
*       4.0893103529E+00               0
GRID*               4809               02.6260441102E+010.0000000000E+00+
*       4.1664317725E+00               0
GRID*               4810               02.6151809007E+010.0000000000E+00+
*       4.4292898084E+00               0
GRID*               4811               02.6615022771E+010.0000000000E+00+
*       3.9614177677E+00               0
GRID*               4812               02.6527674528E+010.0000000000E+00+
*       4.2293793988E+00               0
GRID*               4813               02.6905332078E+010.0000000000E+00+
*       4.0298942024E+00               0
GRID*               4814               02.6631836071E+010.0000000000E+00+
*       4.7606582083E+00               0
GRID*               4815               02.6676865096E+010.0000000000E+00+
*       5.0200309027E+00               0
GRID*               4816               02.6336750144E+010.0000000000E+00+
*       4.8163735032E+00               0
GRID*               4817               02.6437476388E+010.0000000000E+00+
*       4.4871856057E+00               0
GRID*               4818               02.6797126182E+010.0000000000E+00+
*       4.3052401876E+00               0
GRID*               4819               02.6706928042E+010.0000000000E+00+
*       4.5630463945E+00               0
GRID*               4820               02.7086885588E+010.0000000000E+00+
*       4.4037503725E+00               0
GRID*               4821               02.7206832116E+010.0000000000E+00+
*       4.7807241102E+00               0
GRID*               4822               02.6948378331E+010.0000000000E+00+
*       4.6490092564E+00               0
GRID*               4823               02.7018153258E+010.0000000000E+00+
*       4.9994261518E+00               0
GRID*               4824               02.6873286360E+010.0000000000E+00+
*       4.8466210703E+00               0
GRID*               4825               0-2.683108396E+010.0000000000E+00+
*       1.5099676400E+00               0
GRID*               4826               0-2.713256452E+010.0000000000E+00+
*       1.4684650455E+00               0
GRID*               4827               0-2.602587538E+010.0000000000E+00+
*       3.0713539556E+00               0
GRID*               4828               0-2.639644609E+010.0000000000E+00+
*       2.9725024144E+00               0
GRID*               4829               0-2.639407114E+010.0000000000E+00+
*       2.5742159848E+00               0
GRID*               4830               0-2.642846280E+010.0000000000E+00+
*       3.3562413183E+00               0
GRID*               4831               0-2.680041828E+010.0000000000E+00+
*       3.2635070986E+00               0
GRID*               4832               0-2.676840157E+010.0000000000E+00+
*       2.8797681947E+00               0
GRID*               4833               0-2.685590174E+010.0000000000E+00+
*       3.6035268385E+00               0
GRID*               4834               0-2.719148413E+010.0000000000E+00+
*       3.5238729405E+00               0
GRID*               4835               0-2.713600067E+010.0000000000E+00+
*       3.1838532006E+00               0
GRID*               4836               0-2.712159910E+010.0000000000E+00+
*       2.8332355722E+00               0
GRID*               4837               0-2.745545057E+010.0000000000E+00+
*       3.1615241280E+00               0
GRID*               4838               0-2.744104900E+010.0000000000E+00+
*       2.8109064996E+00               0
GRID*               4839               0-2.776411750E+010.0000000000E+00+
*       2.8690857155E+00               0
GRID*               4840               0-2.747662153E+010.0000000000E+00+
*       2.4565502958E+00               0
GRID*               4841               0-2.877344306E+010.0000000000E+00+
*       4.5669664461E+00               0
GRID*               4842               0-2.886068282E+010.0000000000E+00+
*       4.1523660111E+00               0
GRID*               4843               0-2.861883550E+010.0000000000E+00+
*       4.3648800964E+00               0
GRID*               4844               0-2.851372033E+010.0000000000E+00+
*       3.8170018654E+00               0
GRID*               4845               0-2.853301254E+010.0000000000E+00+
*       4.0897952509E+00               0
GRID*               4846               0-2.829070766E+010.0000000000E+00+
*       4.1411809659E+00               0
GRID*               4847               0-2.837653063E+010.0000000000E+00+
*       4.4162658114E+00               0
GRID*               4848               0-2.792872941E+010.0000000000E+00+
*       3.9156482167E+00               0
GRID*               4849               0-2.801449975E+010.0000000000E+00+
*       4.2043384438E+00               0
GRID*               4850               0-2.820493733E+010.0000000000E+00+
*       3.8524907387E+00               0
GRID*               4851               0-2.811847680E+010.0000000000E+00+
*       3.4941844065E+00               0
GRID*               4852               0-2.802829310E+010.0000000000E+00+
*       3.2668841068E+00               0
GRID*               4853               0-2.771862808E+010.0000000000E+00+
*       3.1348426708E+00               0
GRID*               4854               0-2.748856668E+010.0000000000E+00+
*       3.4473673843E+00               0
GRID*               4855               0-2.775174420E+010.0000000000E+00+
*       3.4206859271E+00               0
GRID*               4856               0-2.726240968E+010.0000000000E+00+
*       3.8211024041E+00               0
GRID*               4857               0-2.755949223E+010.0000000000E+00+
*       3.7445968479E+00               0
GRID*               4858               0-2.417836410E+010.0000000000E+00+
*       4.0362505603E+00               0
GRID*               4859               0-2.435458443E+010.0000000000E+00+
*       4.1081793973E+00               0
GRID*               4860               0-2.463423137E+010.0000000000E+00+
*       3.9010832325E+00               0
GRID*               4861               0-2.456942879E+010.0000000000E+00+
*       4.1762689392E+00               0
GRID*               4862               0-2.420837946E+010.0000000000E+00+
*       4.2932388042E+00               0
GRID*               4863               0-2.442322382E+010.0000000000E+00+
*       4.3613283460E+00               0
GRID*               4864               0-2.403783135E+010.0000000000E+00+
*       4.4704853694E+00               0
GRID*               4865               0-2.397646124E+010.0000000000E+00+
*       4.2255391394E+00               0
GRID*               4866               0-2.380591314E+010.0000000000E+00+
*       4.4027857046E+00               0
GRID*               4867               0-2.373491065E+010.0000000000E+00+
*       4.1707266828E+00               0
GRID*               4868               0-2.395928631E+010.0000000000E+00+
*       5.1924565500E+00               0
GRID*               4869               0-2.438259310E+010.0000000000E+00+
*       5.1395651818E+00               0
GRID*               4870               0-2.414884781E+010.0000000000E+00+
*       5.0137000717E+00               0
GRID*               4871               0-2.426408075E+010.0000000000E+00+
*       4.5575272201E+00               0
GRID*               4872               0-2.387223026E+010.0000000000E+00+
*       4.6470257300E+00               0
GRID*               4873               0-2.409847965E+010.0000000000E+00+
*       4.7340675808E+00               0
GRID*               4874               0-2.392435756E+010.0000000000E+00+
*       4.9088750341E+00               0
GRID*               4875               0-2.432296991E+010.0000000000E+00+
*       4.8388926183E+00               0
GRID*               4876               0-2.481644011E+010.0000000000E+00+
*       5.0557483146E+00               0
GRID*               4877               0-2.455481009E+010.0000000000E+00+
*       4.9409219813E+00               0
GRID*               4878               0-2.526519431E+010.0000000000E+00+
*       4.9042495569E+00               0
GRID*               4879               0-2.492997455E+010.0000000000E+00+
*       4.8500454181E+00               0
GRID*               4880               0-2.509254124E+010.0000000000E+00+
*       4.6393241978E+00               0
GRID*               4881               0-2.488404195E+010.0000000000E+00+
*       4.5361940166E+00               0
GRID*               4882               0-2.472147526E+010.0000000000E+00+
*       4.7469152369E+00               0
GRID*               4883               0-2.448963508E+010.0000000000E+00+
*       4.6448858740E+00               0
GRID*               4884               0-2.464877815E+010.0000000000E+00+
*       4.4486869998E+00               0
GRID*               4885               0-2.846202280E+010.0000000000E+00+
*       4.7522311825E+00               0
GRID*               4886               0-2.789774180E+010.0000000000E+00+
*       4.7436822195E+00               0
GRID*               4887               0-2.784540766E+010.0000000000E+00+
*       5.0035282526E+00               0
GRID*               4888               0-2.818386296E+010.0000000000E+00+
*       4.8049963241E+00               0
GRID*               4889               0-2.809837079E+010.0000000000E+00+
*       4.4690309530E+00               0
GRID*               4890               0-2.774604928E+010.0000000000E+00+
*       4.2788832962E+00               0
GRID*               4891               0-2.782992032E+010.0000000000E+00+
*       4.5435758055E+00               0
GRID*               4892               0-2.758782818E+010.0000000000E+00+
*       4.6239280409E+00               0
GRID*               4893               0-2.765564967E+010.0000000000E+00+
*       4.8240344549E+00               0
GRID*               4894               0-2.750584621E+010.0000000000E+00+
*       4.9754321638E+00               0
GRID*               4895               0-2.764629374E+010.0000000000E+00+
*       4.0122588378E+00               0
GRID*               4896               0-2.736729828E+010.0000000000E+00+
*       4.1153346782E+00               0
GRID*               4897               0-2.746705381E+010.0000000000E+00+
*       4.3819591366E+00               0
GRID*               4898               0-2.695621485E+010.0000000000E+00+
*       3.9361090013E+00               0
GRID*               4899               0-2.706110345E+010.0000000000E+00+
*       4.2303412753E+00               0
GRID*               4900               0-2.676680372E+010.0000000000E+00+
*       4.3802009637E+00               0
GRID*               4901               0-2.691193243E+010.0000000000E+00+
*       4.6570919372E+00               0
GRID*               4902               0-2.720623216E+010.0000000000E+00+
*       4.5072322488E+00               0
GRID*               4903               0-2.663700454E+010.0000000000E+00+
*       4.8385206430E+00               0
GRID*               4904               0-2.709957193E+010.0000000000E+00+
*       4.9138030575E+00               0
GRID*               4905               0-2.732700653E+010.0000000000E+00+
*       4.7492011531E+00               0
GRID*               4906               0-2.649788055E+010.0000000000E+00+
*       3.7388943810E+00               0
GRID*               4907               0-2.659819366E+010.0000000000E+00+
*       4.0714765438E+00               0
GRID*               4908               0-2.595766423E+010.0000000000E+00+
*       3.5300902998E+00               0
GRID*               4909               0-2.602708198E+010.0000000000E+00+
*       3.9127433625E+00               0
GRID*               4910               0-2.553774229E+010.0000000000E+00+
*       3.6151111173E+00               0
GRID*               4911               0-2.626103071E+010.0000000000E+00+
*       4.2536529397E+00               0
GRID*               4912               0-2.642964076E+010.0000000000E+00+
*       4.5623773596E+00               0
GRID*               4913               0-2.588087045E+010.0000000000E+00+
*       4.4937396889E+00               0
GRID*               4914               0-2.564692173E+010.0000000000E+00+
*       4.1528301117E+00               0
GRID*               4915               0-2.376024930E+010.0000000000E+00+
*       5.0622448387E+00               0
GRID*               4916               0-2.356713136E+010.0000000000E+00+
*       5.2204415278E+00               0
GRID*               4917               0-1.950321200E+010.0000000000E+00+
*       4.5907533832E+00               0
GRID*               4918               0-1.975613923E+010.0000000000E+00+
*       4.7885433053E+00               0
GRID*               4919               0-2.000676129E+010.0000000000E+00+
*       4.5898588252E+00               0
GRID*               4920               0-1.900155829E+010.0000000000E+00+
*       4.5903627593E+00               0
GRID*               4921               0-1.925294373E+010.0000000000E+00+
*       4.7888479342E+00               0
GRID*               4922               0-1.900194698E+010.0000000000E+00+
*       4.9878782212E+00               0
GRID*               4923               0-1.950398034E+010.0000000000E+00+
*       4.9882491823E+00               0
GRID*               4924               0-2.000824272E+010.0000000000E+00+
*       4.9873389944E+00               0
GRID*               4925               0-2.051472454E+010.0000000000E+00+
*       4.5898413184E+00               0
GRID*               4926               0-2.026323663E+010.0000000000E+00+
*       4.7879598324E+00               0
GRID*               4927               0-2.051764566E+010.0000000000E+00+
*       4.9873997354E+00               0
GRID*               4928               0-2.103399269E+010.0000000000E+00+
*       4.5890179619E+00               0
GRID*               4929               0-2.078021458E+010.0000000000E+00+
*       4.7875928696E+00               0
GRID*               4930               0-2.103995497E+010.0000000000E+00+
*       4.9869049278E+00               0
GRID*               4931               0-2.158471967E+010.0000000000E+00+
*       4.5856365496E+00               0
GRID*               4932               0-2.132520901E+010.0000000000E+00+
*       4.7853326515E+00               0
GRID*               4933               0-2.159640714E+010.0000000000E+00+
*       4.9851320942E+00               0
GRID*               4934               0-2.226599080E+010.0000000000E+00+
*       4.5692466241E+00               0
GRID*               4935               0-2.198987517E+010.0000000000E+00+
*       4.7737063153E+00               0
GRID*               4936               0-2.228153675E+010.0000000000E+00+
*       4.9778636134E+00               0
GRID*               4937               0-2.285220366E+010.0000000000E+00+
*       4.4033021981E+00               0
GRID*               4938               0-2.316256683E+010.0000000000E+00+
*       4.4604572045E+00               0
GRID*               4939               0-2.329397538E+010.0000000000E+00+
*       4.2851600096E+00               0
GRID*               4940               0-2.321176556E+010.0000000000E+00+
*       5.2076453345E+00               0
GRID*               4941               0-2.341695520E+010.0000000000E+00+
*       5.0766482065E+00               0
GRID*               4942               0-2.356788848E+010.0000000000E+00+
*       4.9551844814E+00               0
GRID*               4943               0-2.344807924E+010.0000000000E+00+
*       4.8494286953E+00               0
GRID*               4944               0-2.329714596E+010.0000000000E+00+
*       4.9708924204E+00               0
GRID*               4945               0-2.309572936E+010.0000000000E+00+
*       5.0161084908E+00               0
GRID*               4946               0-2.283433003E+010.0000000000E+00+
*       5.1154308770E+00               0
GRID*               4947               0-2.305979558E+010.0000000000E+00+
*       4.8396472971E+00               0
GRID*               4948               0-2.326121218E+010.0000000000E+00+
*       4.7944312266E+00               0
GRID*               4949               01.6999998273E+010.0000000000E+00+
*       4.9878778862E+00               0
GRID*               4950               01.7249996458E+010.0000000000E+00+
*       4.7884161409E+00               0
GRID*               4951               01.7499994710E+010.0000000000E+00+
*       4.9876437258E+00               0
GRID*               4952               01.6499999690E+010.0000000000E+00+
*       4.9880002676E+00               0
GRID*               4953               01.6749998921E+010.0000000000E+00+
*       4.7886827913E+00               0
GRID*               4954               01.6000000172E+010.0000000000E+00+
*       4.9880650618E+00               0
GRID*               4955               01.6249999883E+010.0000000000E+00+
*       4.7887904494E+00               0
GRID*               4956               01.5500000273E+010.0000000000E+00+
*       4.9880985045E+00               0
GRID*               4957               01.5750000191E+010.0000000000E+00+
*       4.7888426083E+00               0
GRID*               4958               01.5000000238E+010.0000000000E+00+
*       4.9881225526E+00               0
GRID*               4959               01.5250000236E+010.0000000000E+00+
*       4.7888732895E+00               0
GRID*               4960               01.4500000172E+010.0000000000E+00+
*       4.9881634668E+00               0
GRID*               4961               01.4750000194E+010.0000000000E+00+
*       4.7889083642E+00               0
GRID*               4962               01.4000000111E+010.0000000000E+00+
*       4.9882482899E+00               0
GRID*               4963               01.4250000135E+010.0000000000E+00+
*       4.7889759409E+00               0
GRID*               4964               01.3500000067E+010.0000000000E+00+
*       4.9883910598E+00               0
GRID*               4965               01.3750000086E+010.0000000000E+00+
*       4.7891084145E+00               0
GRID*               4966               01.3000000038E+010.0000000000E+00+
*       4.9885952792E+00               0
GRID*               4967               01.3250000051E+010.0000000000E+00+
*       4.7893795388E+00               0
GRID*               4968               01.2500000022E+010.0000000000E+00+
*       4.9876754139E+00               0
GRID*               4969               01.2750000030E+010.0000000000E+00+
*       4.7889094506E+00               0
GRID*               4970               01.2500000018E+010.0000000000E+00+
*       4.5901721384E+00               0
GRID*               4971               01.3000000032E+010.0000000000E+00+
*       4.5910624244E+00               0
GRID*               4972               01.3500000057E+010.0000000000E+00+
*       4.5908380982E+00               0
GRID*               4973               01.4000000094E+010.0000000000E+00+
*       4.5907045323E+00               0
GRID*               4974               01.4500000146E+010.0000000000E+00+
*       4.5906323620E+00               0
GRID*               4975               01.5000000205E+010.0000000000E+00+
*       4.5905979493E+00               0
GRID*               4976               01.5500000239E+010.0000000000E+00+
*       4.5905766315E+00               0
GRID*               4977               01.6000000168E+010.0000000000E+00+
*       4.5905462932E+00               0
GRID*               4978               01.6499999794E+010.0000000000E+00+
*       4.5904867913E+00               0
GRID*               4979               01.6999998682E+010.0000000000E+00+
*       4.5903723570E+00               0
GRID*               4980               01.7499995889E+010.0000000000E+00+
*       4.5901467837E+00               0
GRID*               4981               01.8999922287E+010.0000000000E+00+
*       4.9878339472E+00               0
GRID*               4982               01.9249875166E+010.0000000000E+00+
*       4.7881936076E+00               0
GRID*               4983               01.9499823447E+010.0000000000E+00+
*       4.9872935716E+00               0
GRID*               4984               01.8499966263E+010.0000000000E+00+
*       4.9882009076E+00               0
GRID*               4985               01.8749944696E+010.0000000000E+00+
*       4.7887799433E+00               0
GRID*               4986               01.7999985802E+010.0000000000E+00+
*       4.9885131221E+00               0
GRID*               4987               01.8249976012E+010.0000000000E+00+
*       4.7892367665E+00               0
GRID*               4988               01.7749990196E+010.0000000000E+00+
*       4.7888504382E+00               0
GRID*               4989               01.7999988824E+010.0000000000E+00+
*       4.5909930748E+00               0
GRID*               4990               01.8499973592E+010.0000000000E+00+
*       4.5906717051E+00               0
GRID*               4991               01.8999939683E+010.0000000000E+00+
*       4.5903314095E+00               0
GRID*               4992               01.9499864373E+010.0000000000E+00+
*       4.5898291832E+00               0
GRID*               4993               01.9999586608E+010.0000000000E+00+
*       4.9877368614E+00               0
GRID*               4994               01.9749709673E+010.0000000000E+00+
*       4.7881521359E+00               0
GRID*               4995               01.9999680527E+010.0000000000E+00+
*       4.5902885317E+00               0
GRID*               4996               02.0499033746E+010.0000000000E+00+
*       4.9878939593E+00               0
GRID*               4997               02.0249315825E+010.0000000000E+00+
*       4.7885865244E+00               0
GRID*               4998               02.0499247602E+010.0000000000E+00+
*       4.5904829305E+00               0
GRID*               4999               02.0997782789E+010.0000000000E+00+
*       4.9876507066E+00               0
GRID*               5000               02.0748414333E+010.0000000000E+00+
*       4.7886098955E+00               0
GRID*               5001               02.0998290359E+010.0000000000E+00+
*       4.5904311324E+00               0
GRID*               5002               02.1495001249E+010.0000000000E+00+
*       4.9865359694E+00               0
GRID*               5003               02.1246380770E+010.0000000000E+00+
*       4.7881105155E+00               0
GRID*               5004               02.1496330669E+010.0000000000E+00+
*       4.5900133151E+00               0
GRID*               5005               02.1988574749E+010.0000000000E+00+
*       4.9833156696E+00               0
GRID*               5006               02.1741480263E+010.0000000000E+00+
*       4.7866087037E+00               0
GRID*               5007               02.1992679535E+010.0000000000E+00+
*       4.5892917887E+00               0
GRID*               5008               02.2920696741E+010.0000000000E+00+
*       4.9512536517E+00               0
GRID*               5009               02.3028523923E+010.0000000000E+00+
*       4.6158469789E+00               0
GRID*               5010               02.2471644578E+010.0000000000E+00+
*       4.9747542701E+00               0
GRID*               5011               02.2671569473E+010.0000000000E+00+
*       4.7768621844E+00               0
GRID*               5012               02.2487361341E+010.0000000000E+00+
*       4.5905212999E+00               0
GRID*               5013               02.2226855816E+010.0000000000E+00+
*       4.7832225216E+00               0
GRID*               5014               01.2000000011E+010.0000000000E+00+
*       4.9878897523E+00               0
GRID*               5015               01.2250000017E+010.0000000000E+00+
*       4.7884385118E+00               0
GRID*               5016               01.1500000006E+010.0000000000E+00+
*       4.9880045002E+00               0
GRID*               5017               01.1750000008E+010.0000000000E+00+
*       4.7886910535E+00               0
GRID*               5018               01.1000000003E+010.0000000000E+00+
*       4.9880662970E+00               0
GRID*               5019               01.1250000004E+010.0000000000E+00+
*       4.7887931682E+00               0
GRID*               5020               01.0500000001E+010.0000000000E+00+
*       4.9880971093E+00               0
GRID*               5021               01.0750000002E+010.0000000000E+00+
*       4.7888420738E+00               0
GRID*               5022               01.0000000001E+010.0000000000E+00+
*       4.9881111274E+00               0
GRID*               5023               01.0250000001E+010.0000000000E+00+
*       4.7888652029E+00               0
GRID*               5024               09.5000000003E+000.0000000000E+00+
*       4.9881169992E+00               0
GRID*               5025               09.7500000004E+000.0000000000E+00+
*       4.7888754125E+00               0
GRID*               5026               09.0000000001E+000.0000000000E+00+
*       4.9881193040E+00               0
GRID*               5027               09.2500000002E+000.0000000000E+00+
*       4.7888796021E+00               0
GRID*               5028               08.5000000001E+000.0000000000E+00+
*       4.9881201654E+00               0
GRID*               5029               08.7500000001E+000.0000000000E+00+
*       4.7888812225E+00               0
GRID*               5030               08.0000000000E+000.0000000000E+00+
*       4.9881204751E+00               0
GRID*               5031               08.2500000000E+000.0000000000E+00+
*       4.7888818222E+00               0
GRID*               5032               07.5000000000E+000.0000000000E+00+
*       4.9881205830E+00               0
GRID*               5033               07.7500000000E+000.0000000000E+00+
*       4.7888820367E+00               0
GRID*               5034               07.0000000000E+000.0000000000E+00+
*       4.9881206213E+00               0
GRID*               5035               07.2500000000E+000.0000000000E+00+
*       4.7888821126E+00               0
GRID*               5036               06.5000000000E+000.0000000000E+00+
*       4.9881206427E+00               0
GRID*               5037               06.7500000000E+000.0000000000E+00+
*       4.7888821463E+00               0
GRID*               5038               06.0000000000E+000.0000000000E+00+
*       4.9881206909E+00               0
GRID*               5039               06.2500000000E+000.0000000000E+00+
*       4.7888821953E+00               0
GRID*               5040               05.5000000000E+000.0000000000E+00+
*       4.9881209254E+00               0
GRID*               5041               05.7500000000E+000.0000000000E+00+
*       4.7888824125E+00               0
GRID*               5042               05.0000000000E+000.0000000000E+00+
*       4.9881225789E+00               0
GRID*               5043               05.2500000000E+000.0000000000E+00+
*       4.7888837432E+00               0
GRID*               5044               04.5000000000E+000.0000000000E+00+
*       4.9881322662E+00               0
GRID*               5045               04.7500000000E+000.0000000000E+00+
*       4.7888906180E+00               0
GRID*               5046               04.0000000000E+000.0000000000E+00+
*       4.9881671856E+00               0
GRID*               5047               04.2500000000E+000.0000000000E+00+
*       4.7889152445E+00               0
GRID*               5048               03.5000000000E+000.0000000000E+00+
*       4.9882496574E+00               0
GRID*               5049               03.7500000000E+000.0000000000E+00+
*       4.7889785452E+00               0
GRID*               5050               03.0000000000E+000.0000000000E+00+
*       4.9883915469E+00               0
GRID*               5051               03.2500000000E+000.0000000000E+00+
*       4.7891093652E+00               0
GRID*               5052               02.5000000000E+000.0000000000E+00+
*       4.9885954488E+00               0
GRID*               5053               02.7500000000E+000.0000000000E+00+
*       4.7893798765E+00               0
GRID*               5054               02.0000000000E+000.0000000000E+00+
*       4.9876754630E+00               0
GRID*               5055               02.2500000000E+000.0000000000E+00+
*       4.7889095614E+00               0
GRID*               5056               02.0000000000E+000.0000000000E+00+
*       4.5901721701E+00               0
GRID*               5057               02.5000000000E+000.0000000000E+00+
*       4.5910625440E+00               0
GRID*               5058               03.0000000000E+000.0000000000E+00+
*       4.5908384477E+00               0
GRID*               5059               03.5000000000E+000.0000000000E+00+
*       4.5907055379E+00               0
GRID*               5060               04.0000000000E+000.0000000000E+00+
*       4.5906351877E+00               0
GRID*               5061               04.5000000000E+000.0000000000E+00+
*       4.5906056643E+00               0
GRID*               5062               05.0000000000E+000.0000000000E+00+
*       4.5905966835E+00               0
GRID*               5063               05.5000000000E+000.0000000000E+00+
*       4.5905947300E+00               0
GRID*               5064               06.0000000000E+000.0000000000E+00+
*       4.5905943643E+00               0
GRID*               5065               06.5000000000E+000.0000000000E+00+
*       4.5905942866E+00               0
GRID*               5066               07.0000000000E+000.0000000000E+00+
*       4.5905942621E+00               0
GRID*               5067               07.5000000000E+000.0000000000E+00+
*       4.5905942334E+00               0
GRID*               5068               08.0000000000E+000.0000000000E+00+
*       4.5905941567E+00               0
GRID*               5069               08.5000000000E+000.0000000000E+00+
*       4.5905939328E+00               0
GRID*               5070               09.0000000001E+000.0000000000E+00+
*       4.5905932909E+00               0
GRID*               5071               09.5000000002E+000.0000000000E+00+
*       4.5905915039E+00               0
GRID*               5072               01.0000000000E+010.0000000000E+00+
*       4.5905867001E+00               0
GRID*               5073               01.0500000001E+010.0000000000E+00+
*       4.5905746006E+00               0
GRID*               5074               01.1000000002E+010.0000000000E+00+
*       4.5905469057E+00               0
GRID*               5075               01.1500000005E+010.0000000000E+00+
*       4.5904897973E+00               0
GRID*               5076               01.2000000009E+010.0000000000E+00+
*       4.5903813318E+00               0
GRID*               5077               01.5000000000E+000.0000000000E+00+
*       4.9878897688E+00               0
GRID*               5078               01.7500000000E+000.0000000000E+00+
*       4.7884385431E+00               0
GRID*               5079               01.0000000000E+000.0000000000E+00+
*       4.9880045056E+00               0
GRID*               5080               01.2500000000E+000.0000000000E+00+
*       4.7886910644E+00               0
GRID*               5081               05.0000000000E-010.0000000000E+00+
*       4.9880662988E+00               0
GRID*               5082               07.5000000000E-010.0000000000E+00+
*       4.7887931718E+00               0
GRID*               5083               0-4.404754339E-120.0000000000E+00+
*       4.9880971099E+00               0
GRID*               5084               02.5000000000E-010.0000000000E+00+
*       4.7888420750E+00               0
GRID*               5085               0-5.000000000E-010.0000000000E+00+
*       4.9881111276E+00               0
GRID*               5086               0-2.500000000E-010.0000000000E+00+
*       4.7888652033E+00               0
GRID*               5087               0-1.000000000E+000.0000000000E+00+
*       4.9881169992E+00               0
GRID*               5088               0-7.500000000E-010.0000000000E+00+
*       4.7888754126E+00               0
GRID*               5089               0-1.500000000E+000.0000000000E+00+
*       4.9881193040E+00               0
GRID*               5090               0-1.250000000E+000.0000000000E+00+
*       4.7888796021E+00               0
GRID*               5091               0-2.000000000E+000.0000000000E+00+
*       4.9881201654E+00               0
GRID*               5092               0-1.750000000E+000.0000000000E+00+
*       4.7888812225E+00               0
GRID*               5093               0-2.500000000E+000.0000000000E+00+
*       4.9881204749E+00               0
GRID*               5094               0-2.250000000E+000.0000000000E+00+
*       4.7888818221E+00               0
GRID*               5095               0-3.000000000E+000.0000000000E+00+
*       4.9881205825E+00               0
GRID*               5096               0-2.750000000E+000.0000000000E+00+
*       4.7888820362E+00               0
GRID*               5097               0-3.500000000E+000.0000000000E+00+
*       4.9881206188E+00               0
GRID*               5098               0-3.250000000E+000.0000000000E+00+
*       4.7888821103E+00               0
GRID*               5099               0-4.000000000E+000.0000000000E+00+
*       4.9881206308E+00               0
GRID*               5100               0-3.750000000E+000.0000000000E+00+
*       4.7888821352E+00               0
GRID*               5101               0-4.500000000E+000.0000000000E+00+
*       4.9881206346E+00               0
GRID*               5102               0-4.250000000E+000.0000000000E+00+
*       4.7888821434E+00               0
GRID*               5103               0-5.000000001E+000.0000000000E+00+
*       4.9881206357E+00               0
GRID*               5104               0-4.750000001E+000.0000000000E+00+
*       4.7888821460E+00               0
GRID*               5105               0-5.500000001E+000.0000000000E+00+
*       4.9881206360E+00               0
GRID*               5106               0-5.250000001E+000.0000000000E+00+
*       4.7888821468E+00               0
GRID*               5107               0-6.000000002E+000.0000000000E+00+
*       4.9881206359E+00               0
GRID*               5108               0-5.750000001E+000.0000000000E+00+
*       4.7888821469E+00               0
GRID*               5109               0-6.500000003E+000.0000000000E+00+
*       4.9881206357E+00               0
GRID*               5110               0-6.250000002E+000.0000000000E+00+
*       4.7888821468E+00               0
GRID*               5111               0-7.000000005E+000.0000000000E+00+
*       4.9881206353E+00               0
GRID*               5112               0-6.750000004E+000.0000000000E+00+
*       4.7888821464E+00               0
GRID*               5113               0-7.500000007E+000.0000000000E+00+
*       4.9881206345E+00               0
GRID*               5114               0-7.250000006E+000.0000000000E+00+
*       4.7888821459E+00               0
GRID*               5115               0-8.000000011E+000.0000000000E+00+
*       4.9881206334E+00               0
GRID*               5116               0-7.750000009E+000.0000000000E+00+
*       4.7888821450E+00               0
GRID*               5117               0-8.500000018E+000.0000000000E+00+
*       4.9881206316E+00               0
GRID*               5118               0-8.250000014E+000.0000000000E+00+
*       4.7888821436E+00               0
GRID*               5119               0-9.000000028E+000.0000000000E+00+
*       4.9881206286E+00               0
GRID*               5120               0-8.750000022E+000.0000000000E+00+
*       4.7888821413E+00               0
GRID*               5121               0-9.500000044E+000.0000000000E+00+
*       4.9881206240E+00               0
GRID*               5122               0-9.250000035E+000.0000000000E+00+
*       4.7888821377E+00               0
GRID*               5123               0-1.000000007E+010.0000000000E+00+
*       4.9881206166E+00               0
GRID*               5124               0-9.750000054E+000.0000000000E+00+
*       4.7888821320E+00               0
GRID*               5125               0-1.050000011E+010.0000000000E+00+
*       4.9881206049E+00               0
GRID*               5126               0-1.025000008E+010.0000000000E+00+
*       4.7888821229E+00               0
GRID*               5127               0-1.100000017E+010.0000000000E+00+
*       4.9881205866E+00               0
GRID*               5128               0-1.075000013E+010.0000000000E+00+
*       4.7888821086E+00               0
GRID*               5129               0-1.150000026E+010.0000000000E+00+
*       4.9881205580E+00               0
GRID*               5130               0-1.125000020E+010.0000000000E+00+
*       4.7888820863E+00               0
GRID*               5131               0-1.200000039E+010.0000000000E+00+
*       4.9881205141E+00               0
GRID*               5132               0-1.175000031E+010.0000000000E+00+
*       4.7888820520E+00               0
GRID*               5133               0-1.250000060E+010.0000000000E+00+
*       4.9881204483E+00               0
GRID*               5134               0-1.225000047E+010.0000000000E+00+
*       4.7888820001E+00               0
GRID*               5135               0-1.300000090E+010.0000000000E+00+
*       4.9881203528E+00               0
GRID*               5136               0-1.275000071E+010.0000000000E+00+
*       4.7888819241E+00               0
GRID*               5137               0-1.350000136E+010.0000000000E+00+
*       4.9881202200E+00               0
GRID*               5138               0-1.325000108E+010.0000000000E+00+
*       4.7888818170E+00               0
GRID*               5139               0-1.400000211E+010.0000000000E+00+
*       4.9881200425E+00               0
GRID*               5140               0-1.375000167E+010.0000000000E+00+
*       4.7888816721E+00               0
GRID*               5141               0-1.450000345E+010.0000000000E+00+
*       4.9881198128E+00               0
GRID*               5142               0-1.425000270E+010.0000000000E+00+
*       4.7888814839E+00               0
GRID*               5143               0-1.500000611E+010.0000000000E+00+
*       4.9881195271E+00               0
GRID*               5144               0-1.475000470E+010.0000000000E+00+
*       4.7888812556E+00               0
GRID*               5145               0-1.550001167E+010.0000000000E+00+
*       4.9881192669E+00               0
GRID*               5146               0-1.525000880E+010.0000000000E+00+
*       4.7888810801E+00               0
GRID*               5147               0-1.600002358E+010.0000000000E+00+
*       4.9881201294E+00               0
GRID*               5148               0-1.575001753E+010.0000000000E+00+
*       4.7888818144E+00               0
GRID*               5149               0-1.650004892E+010.0000000000E+00+
*       4.9881286756E+00               0
GRID*               5150               0-1.625003608E+010.0000000000E+00+
*       4.7888878764E+00               0
GRID*               5151               0-1.700010244E+010.0000000000E+00+
*       4.9881631904E+00               0
GRID*               5152               0-1.675007530E+010.0000000000E+00+
*       4.7889122454E+00               0
GRID*               5153               0-1.750021487E+010.0000000000E+00+
*       4.9882516468E+00               0
GRID*               5154               0-1.725015771E+010.0000000000E+00+
*       4.7889795999E+00               0
GRID*               5155               0-1.800044983E+010.0000000000E+00+
*       4.9884191386E+00               0
GRID*               5156               0-1.775032981E+010.0000000000E+00+
*       4.7891283228E+00               0
GRID*               5157               0-1.850093611E+010.0000000000E+00+
*       4.9886829909E+00               0
GRID*               5158               0-1.825068527E+010.0000000000E+00+
*       4.7894450253E+00               0
GRID*               5159               0-1.875142634E+010.0000000000E+00+
*       4.7890827073E+00               0
GRID*               5160               0-1.850074713E+010.0000000000E+00+
*       4.5911404988E+00               0
GRID*               5161               0-1.800035974E+010.0000000000E+00+
*       4.5908642116E+00               0
GRID*               5162               0-1.750017217E+010.0000000000E+00+
*       4.5907092939E+00               0
GRID*               5163               0-1.700008220E+010.0000000000E+00+
*       4.5906329982E+00               0
GRID*               5164               0-1.650003930E+010.0000000000E+00+
*       4.5906031344E+00               0
GRID*               5165               0-1.600001897E+010.0000000000E+00+
*       4.5905948296E+00               0
GRID*               5166               0-1.550000940E+010.0000000000E+00+
*       4.5905934449E+00               0
GRID*               5167               0-1.500000491E+010.0000000000E+00+
*       4.5905934584E+00               0
GRID*               5168               0-1.450000276E+010.0000000000E+00+
*       4.5905936413E+00               0
GRID*               5169               0-1.400000167E+010.0000000000E+00+
*       4.5905938118E+00               0
GRID*               5170               0-1.350000107E+010.0000000000E+00+
*       4.5905939478E+00               0
GRID*               5171               0-1.300000070E+010.0000000000E+00+
*       4.5905940501E+00               0
GRID*               5172               0-1.250000047E+010.0000000000E+00+
*       4.5905941238E+00               0
GRID*               5173               0-1.200000031E+010.0000000000E+00+
*       4.5905941746E+00               0
GRID*               5174               0-1.150000020E+010.0000000000E+00+
*       4.5905942086E+00               0
GRID*               5175               0-1.100000013E+010.0000000000E+00+
*       4.5905942307E+00               0
GRID*               5176               0-1.050000008E+010.0000000000E+00+
*       4.5905942450E+00               0
GRID*               5177               0-1.000000005E+010.0000000000E+00+
*       4.5905942540E+00               0
GRID*               5178               0-9.500000035E+000.0000000000E+00+
*       4.5905942598E+00               0
GRID*               5179               0-9.000000022E+000.0000000000E+00+
*       4.5905942634E+00               0
GRID*               5180               0-8.500000014E+000.0000000000E+00+
*       4.5905942657E+00               0
GRID*               5181               0-8.000000009E+000.0000000000E+00+
*       4.5905942671E+00               0
GRID*               5182               0-7.500000006E+000.0000000000E+00+
*       4.5905942680E+00               0
GRID*               5183               0-7.000000004E+000.0000000000E+00+
*       4.5905942686E+00               0
GRID*               5184               0-6.500000002E+000.0000000000E+00+
*       4.5905942689E+00               0
GRID*               5185               0-6.000000001E+000.0000000000E+00+
*       4.5905942691E+00               0
GRID*               5186               0-5.500000001E+000.0000000000E+00+
*       4.5905942691E+00               0
GRID*               5187               0-5.000000001E+000.0000000000E+00+
*       4.5905942690E+00               0
GRID*               5188               0-4.500000000E+000.0000000000E+00+
*       4.5905942682E+00               0
GRID*               5189               0-4.000000000E+000.0000000000E+00+
*       4.5905942657E+00               0
GRID*               5190               0-3.500000000E+000.0000000000E+00+
*       4.5905942575E+00               0
GRID*               5191               0-3.000000000E+000.0000000000E+00+
*       4.5905942324E+00               0
GRID*               5192               0-2.500000000E+000.0000000000E+00+
*       4.5905941565E+00               0
GRID*               5193               0-2.000000000E+000.0000000000E+00+
*       4.5905939327E+00               0
GRID*               5194               0-1.500000000E+000.0000000000E+00+
*       4.5905932909E+00               0
GRID*               5195               0-1.000000000E+000.0000000000E+00+
*       4.5905915040E+00               0
GRID*               5196               0-5.000000000E-010.0000000000E+00+
*       4.5905867002E+00               0
GRID*               5197               0-3.455736565E-120.0000000000E+00+
*       4.5905746010E+00               0
GRID*               5198               05.0000000000E-010.0000000000E+00+
*       4.5905469069E+00               0
GRID*               5199               01.0000000000E+000.0000000000E+00+
*       4.5904898009E+00               0
GRID*               5200               01.5000000000E+000.0000000000E+00+
*       4.5903813426E+00               0
GRID*               5201               0-3.271695864E+010.0000000000E+00+
*       -5.212701120E+00               0
GRID*               5202               03.7582156382E+010.0000000000E+00+
*       1.0637913674E+00               0
GRID*               5203               03.7887033237E+010.0000000000E+00+
*       4.4640984743E-01               0
GRID*               5204               03.7821120529E+010.0000000000E+00+
*       9.0559996834E-01               0
GRID*               5205               03.7546061660E+010.0000000000E+00+
*       -8.150963983E-02               0
GRID*               5206               03.7706610609E+010.0000000000E+00+
*       2.0129733141E-01               0
GRID*               5207               03.7157243249E+010.0000000000E+00+
*       -2.304221033E+00               0
GRID*               5208               03.6990083126E+010.0000000000E+00+
*       -3.050080906E+00               0
GRID*               5209               03.6791386076E+010.0000000000E+00+
*       -3.164609799E+00               0
GRID*               5210               03.6603083953E+010.0000000000E+00+
*       -3.175265959E+00               0
GRID*               5211               03.7249312569E+010.0000000000E+00+
*       -2.580166559E+00               0
GRID*               5212               0-3.597756837E+010.0000000000E+00+
*       -3.657304928E+00               0
GRID*               5213               0-3.587822985E+010.0000000000E+00+
*       -3.966965793E+00               0
GRID*               5214               0-3.582008582E+010.0000000000E+00+
*       -4.265722789E+00               0
GRID*               5215               0-3.515935871E+010.0000000000E+00+
*       -4.459463202E+00               0
GRID*               5216               0-3.543767507E+010.0000000000E+00+
*       -4.528231136E+00               0
GRID*               5217               0-3.299518644E+010.0000000000E+00+
*       -5.024066582E+00               0
GRID*               5218               03.3674805941E+010.0000000000E+00+
*       -4.910787039E+00               0
GRID*               5219               03.4211621793E+010.0000000000E+00+
*       -4.761271359E+00               0
GRID*               5220               03.4059833981E+010.0000000000E+00+
*       -4.980684518E+00               0
GRID*               5221               03.4353868636E+010.0000000000E+00+
*       -5.099958111E+00               0
GRID*               5222               0-2.896909661E+010.0000000000E+00+
*       -4.983847786E+00               0
GRID*               5223               0-2.912304438E+010.0000000000E+00+
*       -4.850977916E+00               0
GRID*               5224               0-2.929545000E+010.0000000000E+00+
*       -5.037998934E+00               0
GRID*               5225               0-2.905997443E+010.0000000000E+00+
*       -4.647602462E+00               0
GRID*               5226               0-2.936248613E+010.0000000000E+00+
*       -4.806264158E+00               0
GRID*               5227               0-2.879141307E+010.0000000000E+00+
*       -4.734528278E+00               0
GRID*               5228               0-2.866457229E+010.0000000000E+00+
*       -4.460733154E+00               0
GRID*               5229               0-2.618494092E+010.0000000000E+00+
*       -3.594701760E+00               0
GRID*               5230               0-2.636977099E+010.0000000000E+00+
*       -3.762326155E+00               0
GRID*               5231               0-2.644124503E+010.0000000000E+00+
*       -3.520056416E+00               0
GRID*               5232               0-2.850392137E+010.0000000000E+00+
*       -4.115675591E+00               0
GRID*               5233               03.0380307101E+010.0000000000E+00+
*       -4.960837554E+00               0
GRID*               5234               03.0047254391E+010.0000000000E+00+
*       -5.183557180E+00               0
GRID*               5235               02.9773277958E+010.0000000000E+00+
*       -4.970937825E+00               0
GRID*               5236               02.9861203377E+010.0000000000E+00+
*       -4.682674737E+00               0
GRID*               5237               03.0237512715E+010.0000000000E+00+
*       -4.652049037E+00               0
GRID*               5238               02.5860730036E+010.0000000000E+00+
*       -3.873749719E+00               0
GRID*               5239               02.5856357596E+010.0000000000E+00+
*       -3.623349207E+00               0
GRID*               5240               02.6052655418E+010.0000000000E+00+
*       -3.732961972E+00               0
GRID*               5241               0-3.734941189E+010.0000000000E+00+
*       -1.865807544E+00               0
GRID*               5242               0-3.778478698E+010.0000000000E+00+
*       -1.237592176E+00               0
GRID*               5243               0-3.773471029E+010.0000000000E+00+
*       -1.013817287E+00               0
GRID*               5244               0-3.761423262E+010.0000000000E+00+
*       -8.680333937E-01               0
GRID*               5245               0-3.761477946E+010.0000000000E+00+
*       -1.746641728E+00               0
GRID*               5246               0-3.551562885E+010.0000000000E+00+
*       4.2267769631E+00               0
GRID*               5247               0-3.445230891E+010.0000000000E+00+
*       4.6537921070E+00               0
GRID*               5248               0-3.507269067E+010.0000000000E+00+
*       4.7539776059E+00               0
GRID*               5249               0-3.546674489E+010.0000000000E+00+
*       4.5091577949E+00               0
GRID*               5250               0-3.477575847E+010.0000000000E+00+
*       4.6872164466E+00               0
GRID*               5251               03.3506214552E+010.0000000000E+00+
*       5.2197207529E+00               0
GRID*               5252               03.3661787179E+010.0000000000E+00+
*       5.0264274725E+00               0
GRID*               5253               03.3327466090E+010.0000000000E+00+
*       4.9687727097E+00               0
GRID*               5254               03.3028000205E+010.0000000000E+00+
*       5.1331299475E+00               0
GRID*               5255               03.3235740566E+010.0000000000E+00+
*       5.2653680226E+00               0
GRID*               5256               0-3.215781692E+010.0000000000E+00+
*       5.0428721174E+00               0
GRID*               5257               0-3.184318478E+010.0000000000E+00+
*       5.1966958139E+00               0
GRID*               5258               0-3.017934437E+010.0000000000E+00+
*       4.7788906980E+00               0
GRID*               5259               0-3.013099980E+010.0000000000E+00+
*       5.0503776427E+00               0
GRID*               5260               0-2.356688611E+010.0000000000E+00+
*       4.3398102598E+00               0
GRID*               5261               0-2.342012079E+010.0000000000E+00+
*       4.5001996402E+00               0
GRID*               5262               0-2.365914782E+010.0000000000E+00+
*       4.5631750850E+00               0
GRID*               5263               02.6734741394E+010.0000000000E+00+
*       2.2115181706E+00               0
GRID*               5264               02.6990783707E+010.0000000000E+00+
*       1.8570016099E+00               0
GRID*               5265               02.5889239258E+010.0000000000E+00+
*       3.8161761051E+00               0
GRID*               5266               0-2.373199675E+010.0000000000E+00+
*       4.8018146768E+00               0
GRID*               5267               0-2.351891431E+010.0000000000E+00+
*       4.7179640318E+00               0
GRID*               5268               0-2.676944307E+010.0000000000E+00+
*       2.4392820423E+00               0
GRID*               5269               0-2.712264060E+010.0000000000E+00+
*       2.3927494198E+00               0
GRID*               5270               0-2.673160352E+010.0000000000E+00+
*       2.0314663352E+00               0
GRID*               5271               0-2.784192790E+010.0000000000E+00+
*       3.6479862267E+00               0
GRID*               5272               0-2.550868635E+010.0000000000E+00+
*       4.7386688521E+00               0
GRID*               5273               0-2.611379986E+010.0000000000E+00+
*       4.7702993370E+00               0
GRID*               5274               0-2.533603328E+010.0000000000E+00+
*       4.4737434929E+00               0
GRID*               5275               0-2.265218227E+010.0000000000E+00+
*       4.8616884380E+00               0
GRID*               5276               0-2.307449329E+010.0000000000E+00+
*       4.6232241275E+00               0
GRID*               5277               0-2.266687998E+010.0000000000E+00+
*       4.6452652684E+00               0
GRID*               5278               0-2.333204725E+010.0000000000E+00+
*       4.6629665632E+00               0
GRID*               5279               03.4570429215E+010.0000000000E+00+
*       -4.755591773E+00               0
GRID*               5280               03.4514147873E+010.0000000000E+00+
*       -4.935941177E+00               0
GRID*               5281               0-2.820721565E+010.0000000000E+00+
*       -4.228114537E+00               0
GRID*               5282               0-2.789673742E+010.0000000000E+00+
*       -4.379410342E+00               0
GRID*               5283               0-2.756281124E+010.0000000000E+00+
*       -4.564251558E+00               0
GRID*               5284               03.0808162152E+010.0000000000E+00+
*       -4.825752994E+00               0
GRID*               5285               03.1318339811E+010.0000000000E+00+
*       -4.939857351E+00               0
GRID*               5286               0-3.739337820E+010.0000000000E+00+
*       2.3607880792E+00               0
GRID*               5287               0-3.693256443E+010.0000000000E+00+
*       2.6628047198E+00               0
GRID*               5288               0-3.739064584E+010.0000000000E+00+
*       1.6256277861E+00               0
GRID*               5289               0-3.747680278E+010.0000000000E+00+
*       1.8223782630E+00               0
GRID*               5290               03.6627568084E+010.0000000000E+00+
*       3.5331399489E+00               0
GRID*               5291               03.6719063077E+010.0000000000E+00+
*       2.9896291297E+00               0
GRID*               5292               03.5953611842E+010.0000000000E+00+
*       3.8265898721E+00               0
GRID*               5293               03.6168039423E+010.0000000000E+00+
*       3.8258014543E+00               0
GRID*               5294               03.3425566703E+010.0000000000E+00+
*       5.5728402668E+00               0
GRID*               5295               03.3534801071E+010.0000000000E+00+
*       5.3947333627E+00               0
GRID*               5296               03.3264327085E+010.0000000000E+00+
*       5.4403806324E+00               0
GRID*               5297               0-2.486502656E+010.0000000000E+00+
*       3.9246603194E+00               0
GRID*               5298               0-2.480022399E+010.0000000000E+00+
*       4.1998460260E+00               0
GRID*               5299               0-2.503548779E+010.0000000000E+00+
*       4.2873530428E+00               0
GRID*               5300               0-2.534637624E+010.0000000000E+00+
*       3.9664396616E+00               0
GRID*               5301               02.5622124646E+010.0000000000E+00+
*       3.6670713741E+00               0
GRID*               5302               0-2.696583265E+010.0000000000E+00+
*       1.9039934180E+00               0
GRID*               5303               0-2.719885671E+010.0000000000E+00+
*       1.9780433705E+00               0
GRID*               5304               0-3.764431770E+010.0000000000E+00+
*       2.1471761560E+00               0
GRID*               5305               0-3.742632688E+010.0000000000E+00+
*       2.1359141468E+00               0
GRID*               5306               0-3.758278419E+010.0000000000E+00+
*       1.9415603130E+00               0
GRID*               5307               03.6532671890E+010.0000000000E+00+
*       3.8486141733E+00               0
GRID*               5308               03.6434846877E+010.0000000000E+00+
*       3.6536056772E+00               0
GRID*               5309               03.6319651249E+010.0000000000E+00+
*       3.8748004301E+00               0
GRID*               5310               0-3.299547606E+010.0000000000E+00+
*       -5.979506797E+00               1
GRID*               5311               0-3.348756750E+010.0000000000E+00+
*       -5.918167503E+00               1
GRID*               5312               0-3.397291287E+010.0000000000E+00+
*       -5.816401341E+00               1
GRID*               5313               0-3.444819674E+010.0000000000E+00+
*       -5.674903242E+00               1
GRID*               5314               0-3.491017239E+010.0000000000E+00+
*       -5.494639601E+00               1
GRID*               5315               0-3.535568451E+010.0000000000E+00+
*       -5.276842779E+00               1
GRID*               5316               0-3.578168879E+010.0000000000E+00+
*       -5.022998634E+00               1
GRID*               5317               0-3.618527643E+010.0000000000E+00+
*       -4.734843284E+00               1
GRID*               5318               0-3.656368924E+010.0000000000E+00+
*       -4.414343306E+00               1
GRID*               5319               0-3.691434296E+010.0000000000E+00+
*       -4.063689007E+00               1
GRID*               5320               0-3.723484215E+010.0000000000E+00+
*       -3.685275544E+00               1
GRID*               5321               0-3.752299808E+010.0000000000E+00+
*       -3.281688312E+00               1
GRID*               5322               0-3.777684387E+010.0000000000E+00+
*       -2.855685009E+00               1
GRID*               5323               0-3.799463852E+010.0000000000E+00+
*       -2.410171825E+00               1
GRID*               5324               0-3.817490228E+010.0000000000E+00+
*       -1.948196198E+00               1
GRID*               5325               0-3.831640093E+010.0000000000E+00+
*       -1.472912538E+00               1
GRID*               5326               0-3.841816872E+010.0000000000E+00+
*       -9.875674482E-01               1
GRID*               5327               0-3.847950881E+010.0000000000E+00+
*       -4.954761411E-01               1
GRID*               5328               0-3.850000000E+010.0000000000E+00+
*       0.0000000000E+00               1
GRID*               5329               0-3.847950881E+010.0000000000E+00+
*       4.9547614112E-01               1
GRID*               5330               0-3.841816872E+010.0000000000E+00+
*       9.8756744816E-01               1
GRID*               5331               0-3.831640093E+010.0000000000E+00+
*       1.4729125382E+00               1
GRID*               5332               0-3.817490228E+010.0000000000E+00+
*       1.9481961983E+00               1
GRID*               5333               0-3.799463852E+010.0000000000E+00+
*       2.4101718254E+00               1
GRID*               5334               0-3.777684387E+010.0000000000E+00+
*       2.8556850092E+00               1
GRID*               5335               0-3.752299808E+010.0000000000E+00+
*       3.2816883118E+00               1
GRID*               5336               0-3.723484215E+010.0000000000E+00+
*       3.6852755439E+00               1
GRID*               5337               0-3.691434296E+010.0000000000E+00+
*       4.0636890071E+00               1
GRID*               5338               0-3.656368924E+010.0000000000E+00+
*       4.4143433057E+00               1
GRID*               5339               0-3.618527643E+010.0000000000E+00+
*       4.7348432835E+00               1
GRID*               5340               0-3.578168879E+010.0000000000E+00+
*       5.0229986341E+00               1
GRID*               5341               0-3.535568451E+010.0000000000E+00+
*       5.2768427791E+00               1
GRID*               5342               0-3.491017239E+010.0000000000E+00+
*       5.4946396005E+00               1
GRID*               5343               0-3.444819674E+010.0000000000E+00+
*       5.6749032419E+00               1
GRID*               5344               0-3.397291287E+010.0000000000E+00+
*       5.8164013411E+00               1
GRID*               5345               0-3.348756750E+010.0000000000E+00+
*       5.9181675035E+00               1
GRID*               5346               0-3.299547606E+010.0000000000E+00+
*       5.9795067968E+00               1
GRID*               5347               0-3.274794984E+010.0000000000E+00+
*       5.9948701439E+00               1
GRID*               5348               0-3.324215576E+010.0000000000E+00+
*       5.9539231709E+00               1
GRID*               5349               0-3.373129207E+010.0000000000E+00+
*       5.8723010946E+00               1
GRID*               5350               0-3.421201739E+010.0000000000E+00+
*       5.7505650350E+00               1
GRID*               5351               0-3.468104775E+010.0000000000E+00+
*       5.5895463770E+00               1
GRID*               5352               0-3.513517937E+010.0000000000E+00+
*       5.3903455420E+00               1
GRID*               5353               0-3.557131008E+010.0000000000E+00+
*       5.1543233842E+00               1
GRID*               5354               0-3.598646091E+010.0000000000E+00+
*       4.8830923145E+00               1
GRID*               5355               0-3.637779548E+010.0000000000E+00+
*       4.5785045159E+00               1
GRID*               5356               0-3.674264071E+010.0000000000E+00+
*       4.2426407607E+00               1
GRID*               5357               0-3.707850383E+010.0000000000E+00+
*       3.8777949580E+00               1
GRID*               5358               0-3.738309122E+010.0000000000E+00+
*       3.4864600555E+00               1
GRID*               5359               0-3.765432383E+010.0000000000E+00+
*       3.0713102034E+00               1
GRID*               5360               0-3.789034548E+010.0000000000E+00+
*       2.6351792903E+00               1
GRID*               5361               0-3.808954491E+010.0000000000E+00+
*       2.1810470336E+00               1
GRID*               5362               0-3.825056503E+010.0000000000E+00+
*       1.7120171582E+00               1
GRID*               5363               0-3.837230060E+010.0000000000E+00+
*       1.2312917076E+00               1
GRID*               5364               0-3.845392534E+010.0000000000E+00+
*       7.4215586258E-01               1
GRID*               5365               0-3.849487516E+010.0000000000E+00+
*       2.4794986351E-01               1
GRID*               5366               0-3.849487516E+010.0000000000E+00+
*       -2.479498635E-01               1
GRID*               5367               0-3.845392534E+010.0000000000E+00+
*       -7.421558626E-01               1
GRID*               5368               0-3.837230060E+010.0000000000E+00+
*       -1.231291708E+00               1
GRID*               5369               0-3.825056503E+010.0000000000E+00+
*       -1.712017158E+00               1
GRID*               5370               0-3.808954491E+010.0000000000E+00+
*       -2.181047034E+00               1
GRID*               5371               0-3.789034548E+010.0000000000E+00+
*       -2.635179290E+00               1
GRID*               5372               0-3.765432383E+010.0000000000E+00+
*       -3.071310203E+00               1
GRID*               5373               0-3.738309122E+010.0000000000E+00+
*       -3.486460055E+00               1
GRID*               5374               0-3.707850383E+010.0000000000E+00+
*       -3.877794958E+00               1
GRID*               5375               0-3.674264071E+010.0000000000E+00+
*       -4.242640761E+00               1
GRID*               5376               0-3.637779548E+010.0000000000E+00+
*       -4.578504516E+00               1
GRID*               5377               0-3.598646091E+010.0000000000E+00+
*       -4.883092315E+00               1
GRID*               5378               0-3.557131008E+010.0000000000E+00+
*       -5.154323384E+00               1
GRID*               5379               0-3.513517937E+010.0000000000E+00+
*       -5.390345542E+00               1
GRID*               5380               0-3.468104775E+010.0000000000E+00+
*       -5.589546377E+00               1
GRID*               5381               0-3.421201739E+010.0000000000E+00+
*       -5.750565035E+00               1
GRID*               5382               0-3.373129207E+010.0000000000E+00+
*       -5.872301095E+00               1
GRID*               5383               0-3.324215576E+010.0000000000E+00+
*       -5.953923171E+00               1
GRID*               5384               0-3.274794984E+010.0000000000E+00+
*       -5.994870144E+00               1
GRID*               5385               0-3.294003283E+010.0000000000E+00+
*       -3.975722280E+00               0
GRID*               5386               0-3.337472423E+010.0000000000E+00+
*       -3.903184871E+00               0
GRID*               5387               0-3.379879783E+010.0000000000E+00+
*       -3.783268759E+00               0
GRID*               5388               0-3.420710572E+010.0000000000E+00+
*       -3.617428567E+00               0
GRID*               5389               0-3.459469139E+010.0000000000E+00+
*       -3.407677168E+00               0
GRID*               5390               0-3.495685019E+010.0000000000E+00+
*       -3.156561103E+00               0
GRID*               5391               0-3.528918694E+010.0000000000E+00+
*       -2.867129615E+00               0
GRID*               5392               0-3.558766682E+010.0000000000E+00+
*       -2.542895027E+00               0
GRID*               5393               0-3.584866489E+010.0000000000E+00+
*       -2.187791818E+00               0
GRID*               5394               0-3.606901704E+010.0000000000E+00+
*       -1.806133218E+00               0
GRID*               5395               0-3.624604422E+010.0000000000E+00+
*       -1.402549771E+00               0
GRID*               5396               0-3.637760242E+010.0000000000E+00+
*       -9.819421753E-01               0
GRID*               5397               0-3.646208847E+010.0000000000E+00+
*       -5.494142402E-01               0
GRID*               5398               0-3.649848088E+010.0000000000E+00+
*       -1.102173998E-01               0
GRID*               5399               0-3.648633849E+010.0000000000E+00+
*       3.3031735782E-01               0
GRID*               5400               0-3.642580671E+010.0000000000E+00+
*       7.6684252113E-01               0
GRID*               5401               0-3.631761984E+010.0000000000E+00+
*       1.1940588868E+00               0
GRID*               5402               0-3.616309384E+010.0000000000E+00+
*       1.6067816759E+00               0
GRID*               5403               0-3.596410076E+010.0000000000E+00+
*       1.9999991911E+00               0
GRID*               5404               0-3.572306012E+010.0000000000E+00+
*       2.3689405327E+00               0
GRID*               5405               0-3.544289541E+010.0000000000E+00+
*       2.7091257765E+00               0
GRID*               5406               0-3.512700760E+010.0000000000E+00+
*       3.0164256087E+00               0
GRID*               5407               0-3.477923219E+010.0000000000E+00+
*       3.2871109895E+00               0
GRID*               5408               0-3.440378944E+010.0000000000E+00+
*       3.5178945147E+00               0
GRID*               5409               0-3.400523737E+010.0000000000E+00+
*       3.7059757183E+00               0
GRID*               5410               0-3.358841391E+010.0000000000E+00+
*       3.8490717993E+00               0
GRID*               5411               0-3.315837843E+010.0000000000E+00+
*       3.9454450080E+00               0
GRID*               5412               0-3.272035111E+010.0000000000E+00+
*       3.9939255101E+00               0
GRID*               5413               0-3.227964908E+010.0000000000E+00+
*       3.9939255101E+00               0
GRID*               5414               0-3.184162173E+010.0000000000E+00+
*       3.9454451695E+00               0
GRID*               5415               0-3.141158627E+010.0000000000E+00+
*       3.8490719042E+00               0
GRID*               5416               0-3.099476279E+010.0000000000E+00+
*       3.7059758560E+00               0
GRID*               5417               0-3.059621074E+010.0000000000E+00+
*       3.5178946403E+00               0
GRID*               5418               0-3.022076783E+010.0000000000E+00+
*       3.2871113642E+00               0
GRID*               5419               0-2.987299223E+010.0000000000E+00+
*       3.0164262109E+00               0
GRID*               5420               0-2.955710488E+010.0000000000E+00+
*       2.7091259755E+00               0
GRID*               5421               0-2.927694029E+010.0000000000E+00+
*       2.3689405658E+00               0
GRID*               5422               0-2.903589833E+010.0000000000E+00+
*       2.0000000890E+00               0
GRID*               5423               0-2.883690756E+010.0000000000E+00+
*       1.6067813409E+00               0
GRID*               5424               0-2.868238106E+010.0000000000E+00+
*       1.1940588785E+00               0
GRID*               5425               0-2.857419366E+010.0000000000E+00+
*       7.6684253782E-01               0
GRID*               5426               0-2.851366152E+010.0000000000E+00+
*       3.3031744961E-01               0
GRID*               5427               0-2.850151912E+010.0000000000E+00+
*       -1.102173077E-01               0
GRID*               5428               0-2.853791138E+010.0000000000E+00+
*       -5.494141729E-01               0
GRID*               5429               0-2.862239939E+010.0000000000E+00+
*       -9.819416801E-01               0
GRID*               5430               0-2.875395547E+010.0000000000E+00+
*       -1.402549945E+00               0
GRID*               5431               0-2.893098379E+010.0000000000E+00+
*       -1.806133002E+00               0
GRID*               5432               0-2.915133465E+010.0000000000E+00+
*       -2.187792219E+00               0
GRID*               5433               0-2.941233392E+010.0000000000E+00+
*       -2.542894571E+00               0
GRID*               5434               0-2.971081263E+010.0000000000E+00+
*       -2.867130230E+00               0
GRID*               5435               0-3.004314960E+010.0000000000E+00+
*       -3.156561477E+00               0
GRID*               5436               0-3.040530861E+010.0000000000E+00+
*       -3.407677243E+00               0
GRID*               5437               0-3.079289424E+010.0000000000E+00+
*       -3.617428719E+00               0
GRID*               5438               0-3.120120219E+010.0000000000E+00+
*       -3.783268764E+00               0
GRID*               5439               0-3.162527575E+010.0000000000E+00+
*       -3.903184983E+00               0
GRID*               5440               0-3.205996716E+010.0000000000E+00+
*       -3.975722312E+00               0
GRID*               5441               0-3.272035102E+010.0000000000E+00+
*       -3.993925515E+00               0
GRID*               5442               0-3.315837834E+010.0000000000E+00+
*       -3.945445023E+00               0
GRID*               5443               0-3.358841382E+010.0000000000E+00+
*       -3.849071824E+00               0
GRID*               5444               0-3.400523729E+010.0000000000E+00+
*       -3.705975753E+00               0
GRID*               5445               0-3.440378936E+010.0000000000E+00+
*       -3.517894559E+00               0
GRID*               5446               0-3.477923212E+010.0000000000E+00+
*       -3.287111042E+00               0
GRID*               5447               0-3.512700753E+010.0000000000E+00+
*       -3.016425669E+00               0
GRID*               5448               0-3.544289534E+010.0000000000E+00+
*       -2.709125844E+00               0
GRID*               5449               0-3.572306007E+010.0000000000E+00+
*       -2.368940607E+00               0
GRID*               5450               0-3.596410072E+010.0000000000E+00+
*       -1.999999271E+00               0
GRID*               5451               0-3.616309380E+010.0000000000E+00+
*       -1.606781760E+00               0
GRID*               5452               0-3.631761981E+010.0000000000E+00+
*       -1.194058975E+00               0
GRID*               5453               0-3.642580669E+010.0000000000E+00+
*       -7.668426115E-01               0
GRID*               5454               0-3.648633848E+010.0000000000E+00+
*       -3.303174496E-01               0
GRID*               5455               0-3.649848088E+010.0000000000E+00+
*       1.1021730773E-01               0
GRID*               5456               0-3.646208848E+010.0000000000E+00+
*       5.4941414901E-01               0
GRID*               5457               0-3.637760244E+010.0000000000E+00+
*       9.8194208606E-01               0
GRID*               5458               0-3.624604425E+010.0000000000E+00+
*       1.4025496843E+00               0
GRID*               5459               0-3.606901708E+010.0000000000E+00+
*       1.8061331356E+00               0
GRID*               5460               0-3.584866494E+010.0000000000E+00+
*       2.1877917410E+00               0
GRID*               5461               0-3.558766688E+010.0000000000E+00+
*       2.5428949563E+00               0
GRID*               5462               0-3.528918701E+010.0000000000E+00+
*       2.8671295505E+00               0
GRID*               5463               0-3.495685026E+010.0000000000E+00+
*       3.1565610460E+00               0
GRID*               5464               0-3.459469146E+010.0000000000E+00+
*       3.4076771197E+00               0
GRID*               5465               0-3.420710580E+010.0000000000E+00+
*       3.6174285275E+00               0
GRID*               5466               0-3.379879791E+010.0000000000E+00+
*       3.7832687290E+00               0
GRID*               5467               0-3.337472432E+010.0000000000E+00+
*       3.9031848512E+00               0
GRID*               5468               0-3.294003292E+010.0000000000E+00+
*       3.9757222700E+00               0
GRID*               5469               0-3.250000009E+010.0000000000E+00+
*       4.0000000000E+00               0
GRID*               5470               0-3.205996726E+010.0000000000E+00+
*       3.9757223220E+00               0
GRID*               5471               0-3.162527584E+010.0000000000E+00+
*       3.9031850036E+00               0
GRID*               5472               0-3.120120228E+010.0000000000E+00+
*       3.7832687936E+00               0
GRID*               5473               0-3.079289432E+010.0000000000E+00+
*       3.6174287580E+00               0
GRID*               5474               0-3.040530868E+010.0000000000E+00+
*       3.4076772909E+00               0
GRID*               5475               0-3.004314968E+010.0000000000E+00+
*       3.1565615335E+00               0
GRID*               5476               0-2.971081269E+010.0000000000E+00+
*       2.8671302944E+00               0
GRID*               5477               0-2.941233398E+010.0000000000E+00+
*       2.5428946422E+00               0
GRID*               5478               0-2.915133470E+010.0000000000E+00+
*       2.1877922958E+00               0
GRID*               5479               0-2.893098383E+010.0000000000E+00+
*       1.8061330841E+00               0
GRID*               5480               0-2.875395550E+010.0000000000E+00+
*       1.4025500309E+00               0
GRID*               5481               0-2.862239942E+010.0000000000E+00+
*       9.8194176941E-01               0
GRID*               5482               0-2.853791140E+010.0000000000E+00+
*       5.4941426410E-01               0
GRID*               5483               0-2.850151912E+010.0000000000E+00+
*       1.1021739980E-01               0
GRID*               5484               0-2.851366151E+010.0000000000E+00+
*       -3.303173578E-01               0
GRID*               5485               0-2.857419364E+010.0000000000E+00+
*       -7.668424474E-01               0
GRID*               5486               0-2.868238103E+010.0000000000E+00+
*       -1.194058791E+00               0
GRID*               5487               0-2.883690752E+010.0000000000E+00+
*       -1.606781257E+00               0
GRID*               5488               0-2.903589828E+010.0000000000E+00+
*       -2.000000009E+00               0
GRID*               5489               0-2.927694023E+010.0000000000E+00+
*       -2.368940492E+00               0
GRID*               5490               0-2.955710482E+010.0000000000E+00+
*       -2.709125908E+00               0
GRID*               5491               0-2.987299216E+010.0000000000E+00+
*       -3.016426150E+00               0
GRID*               5492               0-3.022076775E+010.0000000000E+00+
*       -3.287111312E+00               0
GRID*               5493               0-3.059621066E+010.0000000000E+00+
*       -3.517894596E+00               0
GRID*               5494               0-3.099476270E+010.0000000000E+00+
*       -3.705975821E+00               0
GRID*               5495               0-3.141158618E+010.0000000000E+00+
*       -3.849071879E+00               0
GRID*               5496               0-3.184162164E+010.0000000000E+00+
*       -3.945445154E+00               0
GRID*               5497               0-3.227964898E+010.0000000000E+00+
*       -3.993925505E+00               0
GRID*               5498               0-2.299810184E+010.0000000000E+00+
*       3.4643744825E+00               0
GRID*               5499               0-2.348606391E+010.0000000000E+00+
*       3.3582253945E+00               0
GRID*               5500               0-2.395395227E+010.0000000000E+00+
*       3.1837114419E+00               0
GRID*               5501               0-2.439224267E+010.0000000000E+00+
*       2.9443871426E+00               0
GRID*               5502               0-2.479201231E+010.0000000000E+00+
*       2.6451232216E+00               0
GRID*               5503               0-2.514512312E+010.0000000000E+00+
*       2.2920122662E+00               0
GRID*               5504               0-2.544438688E+010.0000000000E+00+
*       1.8922425634E+00               0
GRID*               5505               0-2.568371189E+010.0000000000E+00+
*       1.4539525694E+00               0
GRID*               5506               0-2.585822575E+010.0000000000E+00+
*       9.8606413248E-01               0
GRID*               5507               0-2.596437363E+010.0000000000E+00+
*       4.9810176337E-01               0
GRID*               5508               0-2.600000000E+010.0000000000E+00+
*       0.0000000000E+00               0
GRID*               5509               0-2.596437363E+010.0000000000E+00+
*       -4.981017634E-01               0
GRID*               5510               0-2.585822575E+010.0000000000E+00+
*       -9.860641325E-01               0
GRID*               5511               0-2.568371189E+010.0000000000E+00+
*       -1.453952569E+00               0
GRID*               5512               0-2.544438688E+010.0000000000E+00+
*       -1.892242563E+00               0
GRID*               5513               0-2.514512312E+010.0000000000E+00+
*       -2.292012266E+00               0
GRID*               5514               0-2.479201231E+010.0000000000E+00+
*       -2.645123222E+00               0
GRID*               5515               0-2.439224267E+010.0000000000E+00+
*       -2.944387143E+00               0
GRID*               5516               0-2.395395227E+010.0000000000E+00+
*       -3.183711442E+00               0
GRID*               5517               0-2.348606391E+010.0000000000E+00+
*       -3.358225395E+00               0
GRID*               5518               0-2.299810184E+010.0000000000E+00+
*       -3.464374483E+00               0
GRID*               5519               0-2.274968717E+010.0000000000E+00+
*       -3.491079626E+00               0
GRID*               5520               0-2.324397839E+010.0000000000E+00+
*       -3.420013600E+00               0
GRID*               5521               0-2.372312455E+010.0000000000E+00+
*       -3.279323899E+00               0
GRID*               5522               0-2.417737111E+010.0000000000E+00+
*       -3.071875914E+00               0
GRID*               5523               0-2.459747166E+010.0000000000E+00+
*       -2.801894148E+00               0
GRID*               5524               0-2.497487326E+010.0000000000E+00+
*       -2.474873295E+00               0
GRID*               5525               0-2.530189431E+010.0000000000E+00+
*       -2.097471836E+00               0
GRID*               5526               0-2.557187619E+010.0000000000E+00+
*       -1.677371301E+00               0
GRID*               5527               0-2.577932391E+010.0000000000E+00+
*       -1.223124652E+00               0
GRID*               5528               0-2.592001297E+010.0000000000E+00+
*       -7.439783717E-01               0
GRID*               5529               0-2.599108184E+010.0000000000E+00+
*       -2.496871146E-01               0
GRID*               5530               0-2.599108184E+010.0000000000E+00+
*       2.4968711460E-01               0
GRID*               5531               0-2.592001297E+010.0000000000E+00+
*       7.4397837170E-01               0
GRID*               5532               0-2.577932391E+010.0000000000E+00+
*       1.2231246516E+00               0
GRID*               5533               0-2.557187619E+010.0000000000E+00+
*       1.6773713008E+00               0
GRID*               5534               0-2.530189431E+010.0000000000E+00+
*       2.0974718359E+00               0
GRID*               5535               0-2.497487326E+010.0000000000E+00+
*       2.4748732954E+00               0
GRID*               5536               0-2.459747166E+010.0000000000E+00+
*       2.8018941484E+00               0
GRID*               5537               0-2.417737111E+010.0000000000E+00+
*       3.0718759136E+00               0
GRID*               5538               0-2.372312455E+010.0000000000E+00+
*       3.2793238991E+00               0
GRID*               5539               0-2.324397839E+010.0000000000E+00+
*       3.4200136002E+00               0
GRID*               5540               0-2.274968717E+010.0000000000E+00+
*       3.4910796255E+00               0
GRID*               5541               03.2000000000E+010.0000000000E+00+
*       -6.000000000E+00               0
GRID*               5542               03.1500000000E+010.0000000000E+00+
*       -6.000000000E+00               0
GRID*               5543               03.1000000000E+010.0000000000E+00+
*       -6.000000000E+00               0
GRID*               5544               03.0500000000E+010.0000000000E+00+
*       -6.000000000E+00               0
GRID*               5545               03.0000000000E+010.0000000000E+00+
*       -6.000000000E+00               0
GRID*               5546               02.9500000000E+010.0000000000E+00+
*       -6.000000000E+00               0
GRID*               5547               02.9000000000E+010.0000000000E+00+
*       -6.000000000E+00               0
GRID*               5548               02.8500000000E+010.0000000000E+00+
*       -6.000000000E+00               0
GRID*               5549               02.8000000000E+010.0000000000E+00+
*       -6.000000000E+00               0
GRID*               5550               02.7500000000E+010.0000000000E+00+
*       -6.000000000E+00               0
GRID*               5551               02.7000000000E+010.0000000000E+00+
*       -6.000000000E+00               0
GRID*               5552               02.6500000000E+010.0000000000E+00+
*       -6.000000000E+00               0
GRID*               5553               02.6000000000E+010.0000000000E+00+
*       -6.000000000E+00               0
GRID*               5554               02.5500000000E+010.0000000000E+00+
*       -6.000000000E+00               0
GRID*               5555               02.5000000000E+010.0000000000E+00+
*       -6.000000000E+00               0
GRID*               5556               02.4500000000E+010.0000000000E+00+
*       -6.000000000E+00               0
GRID*               5557               02.4000000000E+010.0000000000E+00+
*       -6.000000000E+00               0
GRID*               5558               02.3500000000E+010.0000000000E+00+
*       -6.000000000E+00               0
GRID*               5559               02.3000000000E+010.0000000000E+00+
*       -6.000000000E+00               0
GRID*               5560               02.2500000000E+010.0000000000E+00+
*       -6.000000000E+00               0
GRID*               5561               02.2000000000E+010.0000000000E+00+
*       -6.000000000E+00               0
GRID*               5562               02.1500000000E+010.0000000000E+00+
*       -6.000000000E+00               0
GRID*               5563               02.1000000000E+010.0000000000E+00+
*       -6.000000000E+00               0
GRID*               5564               02.0500000000E+010.0000000000E+00+
*       -6.000000000E+00               0
GRID*               5565               02.0000000000E+010.0000000000E+00+
*       -6.000000000E+00               0
GRID*               5566               01.9500000000E+010.0000000000E+00+
*       -6.000000000E+00               0
GRID*               5567               01.9000000000E+010.0000000000E+00+
*       -6.000000000E+00               0
GRID*               5568               01.8500000000E+010.0000000000E+00+
*       -6.000000000E+00               0
GRID*               5569               01.8000000000E+010.0000000000E+00+
*       -6.000000000E+00               0
GRID*               5570               01.7500000000E+010.0000000000E+00+
*       -6.000000000E+00               0
GRID*               5571               01.7000000000E+010.0000000000E+00+
*       -6.000000000E+00               0
GRID*               5572               01.6500000000E+010.0000000000E+00+
*       -6.000000000E+00               0
GRID*               5573               01.6000000000E+010.0000000000E+00+
*       -6.000000000E+00               0
GRID*               5574               01.5500000000E+010.0000000000E+00+
*       -6.000000000E+00               0
GRID*               5575               01.5000000000E+010.0000000000E+00+
*       -6.000000000E+00               0
GRID*               5576               01.4500000000E+010.0000000000E+00+
*       -6.000000000E+00               0
GRID*               5577               01.4000000000E+010.0000000000E+00+
*       -6.000000000E+00               0
GRID*               5578               01.3500000000E+010.0000000000E+00+
*       -6.000000000E+00               0
GRID*               5579               01.3000000000E+010.0000000000E+00+
*       -6.000000000E+00               0
GRID*               5580               01.2500000000E+010.0000000000E+00+
*       -6.000000000E+00               0
GRID*               5581               01.2000000000E+010.0000000000E+00+
*       -6.000000000E+00               0
GRID*               5582               01.1500000000E+010.0000000000E+00+
*       -6.000000000E+00               0
GRID*               5583               01.1000000000E+010.0000000000E+00+
*       -6.000000000E+00               0
GRID*               5584               01.0500000000E+010.0000000000E+00+
*       -6.000000000E+00               0
GRID*               5585               01.0000000000E+010.0000000000E+00+
*       -6.000000000E+00               0
GRID*               5586               09.5000000000E+000.0000000000E+00+
*       -6.000000000E+00               0
GRID*               5587               09.0000000000E+000.0000000000E+00+
*       -6.000000000E+00               0
GRID*               5588               08.5000000000E+000.0000000000E+00+
*       -6.000000000E+00               0
GRID*               5589               08.0000000000E+000.0000000000E+00+
*       -6.000000000E+00               0
GRID*               5590               07.5000000000E+000.0000000000E+00+
*       -6.000000000E+00               0
GRID*               5591               07.0000000000E+000.0000000000E+00+
*       -6.000000000E+00               0
GRID*               5592               06.5000000000E+000.0000000000E+00+
*       -6.000000000E+00               0
GRID*               5593               06.0000000000E+000.0000000000E+00+
*       -6.000000000E+00               0
GRID*               5594               05.5000000000E+000.0000000000E+00+
*       -6.000000000E+00               0
GRID*               5595               05.0000000000E+000.0000000000E+00+
*       -6.000000000E+00               0
GRID*               5596               04.5000000000E+000.0000000000E+00+
*       -6.000000000E+00               0
GRID*               5597               04.0000000000E+000.0000000000E+00+
*       -6.000000000E+00               0
GRID*               5598               03.5000000000E+000.0000000000E+00+
*       -6.000000000E+00               0
GRID*               5599               03.0000000000E+000.0000000000E+00+
*       -6.000000000E+00               0
GRID*               5600               02.5000000000E+000.0000000000E+00+
*       -6.000000000E+00               0
GRID*               5601               02.0000000000E+000.0000000000E+00+
*       -6.000000000E+00               0
GRID*               5602               01.5000000000E+000.0000000000E+00+
*       -6.000000000E+00               0
GRID*               5603               01.0000000000E+000.0000000000E+00+
*       -6.000000000E+00               0
GRID*               5604               05.0000000000E-010.0000000000E+00+
*       -6.000000000E+00               0
GRID*               5605               00.0000000000E+000.0000000000E+00+
*       -6.000000000E+00               0
GRID*               5606               0-5.000000000E-010.0000000000E+00+
*       -6.000000000E+00               0
GRID*               5607               0-1.000000000E+000.0000000000E+00+
*       -6.000000000E+00               0
GRID*               5608               0-1.500000000E+000.0000000000E+00+
*       -6.000000000E+00               0
GRID*               5609               0-2.000000000E+000.0000000000E+00+
*       -6.000000000E+00               0
GRID*               5610               0-2.500000000E+000.0000000000E+00+
*       -6.000000000E+00               0
GRID*               5611               0-3.000000000E+000.0000000000E+00+
*       -6.000000000E+00               0
GRID*               5612               0-3.500000000E+000.0000000000E+00+
*       -6.000000000E+00               0
GRID*               5613               0-4.000000000E+000.0000000000E+00+
*       -6.000000000E+00               0
GRID*               5614               0-4.500000000E+000.0000000000E+00+
*       -6.000000000E+00               0
GRID*               5615               0-5.000000000E+000.0000000000E+00+
*       -6.000000000E+00               0
GRID*               5616               0-5.500000000E+000.0000000000E+00+
*       -6.000000000E+00               0
GRID*               5617               0-6.000000000E+000.0000000000E+00+
*       -6.000000000E+00               0
GRID*               5618               0-6.500000000E+000.0000000000E+00+
*       -6.000000000E+00               0
GRID*               5619               0-7.000000000E+000.0000000000E+00+
*       -6.000000000E+00               0
GRID*               5620               0-7.500000000E+000.0000000000E+00+
*       -6.000000000E+00               0
GRID*               5621               0-8.000000000E+000.0000000000E+00+
*       -6.000000000E+00               0
GRID*               5622               0-8.500000000E+000.0000000000E+00+
*       -6.000000000E+00               0
GRID*               5623               0-9.000000000E+000.0000000000E+00+
*       -6.000000000E+00               0
GRID*               5624               0-9.500000000E+000.0000000000E+00+
*       -6.000000000E+00               0
GRID*               5625               0-1.000000000E+010.0000000000E+00+
*       -6.000000000E+00               0
GRID*               5626               0-1.050000000E+010.0000000000E+00+
*       -6.000000000E+00               0
GRID*               5627               0-1.100000000E+010.0000000000E+00+
*       -6.000000000E+00               0
GRID*               5628               0-1.150000000E+010.0000000000E+00+
*       -6.000000000E+00               0
GRID*               5629               0-1.200000000E+010.0000000000E+00+
*       -6.000000000E+00               0
GRID*               5630               0-1.250000000E+010.0000000000E+00+
*       -6.000000000E+00               0
GRID*               5631               0-1.300000000E+010.0000000000E+00+
*       -6.000000000E+00               0
GRID*               5632               0-1.350000000E+010.0000000000E+00+
*       -6.000000000E+00               0
GRID*               5633               0-1.400000000E+010.0000000000E+00+
*       -6.000000000E+00               0
GRID*               5634               0-1.450000000E+010.0000000000E+00+
*       -6.000000000E+00               0
GRID*               5635               0-1.500000000E+010.0000000000E+00+
*       -6.000000000E+00               0
GRID*               5636               0-1.550000000E+010.0000000000E+00+
*       -6.000000000E+00               0
GRID*               5637               0-1.600000000E+010.0000000000E+00+
*       -6.000000000E+00               0
GRID*               5638               0-1.650000000E+010.0000000000E+00+
*       -6.000000000E+00               0
GRID*               5639               0-1.700000000E+010.0000000000E+00+
*       -6.000000000E+00               0
GRID*               5640               0-1.750000000E+010.0000000000E+00+
*       -6.000000000E+00               0
GRID*               5641               0-1.800000000E+010.0000000000E+00+
*       -6.000000000E+00               0
GRID*               5642               0-1.850000000E+010.0000000000E+00+
*       -6.000000000E+00               0
GRID*               5643               0-1.900000000E+010.0000000000E+00+
*       -6.000000000E+00               0
GRID*               5644               0-1.950000000E+010.0000000000E+00+
*       -6.000000000E+00               0
GRID*               5645               0-2.000000000E+010.0000000000E+00+
*       -6.000000000E+00               0
GRID*               5646               0-2.050000000E+010.0000000000E+00+
*       -6.000000000E+00               0
GRID*               5647               0-2.100000000E+010.0000000000E+00+
*       -6.000000000E+00               0
GRID*               5648               0-2.150000000E+010.0000000000E+00+
*       -6.000000000E+00               0
GRID*               5649               0-2.200000000E+010.0000000000E+00+
*       -6.000000000E+00               0
GRID*               5650               0-2.250000000E+010.0000000000E+00+
*       -6.000000000E+00               0
GRID*               5651               0-2.300000000E+010.0000000000E+00+
*       -6.000000000E+00               0
GRID*               5652               0-2.350000000E+010.0000000000E+00+
*       -6.000000000E+00               0
GRID*               5653               0-2.400000000E+010.0000000000E+00+
*       -6.000000000E+00               0
GRID*               5654               0-2.450000000E+010.0000000000E+00+
*       -6.000000000E+00               0
GRID*               5655               0-2.500000000E+010.0000000000E+00+
*       -6.000000000E+00               0
GRID*               5656               0-2.550000000E+010.0000000000E+00+
*       -6.000000000E+00               0
GRID*               5657               0-2.600000000E+010.0000000000E+00+
*       -6.000000000E+00               0
GRID*               5658               0-2.650000000E+010.0000000000E+00+
*       -6.000000000E+00               0
GRID*               5659               0-2.700000000E+010.0000000000E+00+
*       -6.000000000E+00               0
GRID*               5660               0-2.750000000E+010.0000000000E+00+
*       -6.000000000E+00               0
GRID*               5661               0-2.800000000E+010.0000000000E+00+
*       -6.000000000E+00               0
GRID*               5662               0-2.850000000E+010.0000000000E+00+
*       -6.000000000E+00               0
GRID*               5663               0-2.900000000E+010.0000000000E+00+
*       -6.000000000E+00               0
GRID*               5664               0-2.950000000E+010.0000000000E+00+
*       -6.000000000E+00               0
GRID*               5665               0-3.000000000E+010.0000000000E+00+
*       -6.000000000E+00               0
GRID*               5666               0-3.050000000E+010.0000000000E+00+
*       -6.000000000E+00               0
GRID*               5667               0-3.100000000E+010.0000000000E+00+
*       -6.000000000E+00               0
GRID*               5668               0-3.150000000E+010.0000000000E+00+
*       -6.000000000E+00               0
GRID*               5669               0-3.200000000E+010.0000000000E+00+
*       -6.000000000E+00               0
GRID*               5670               0-3.225000000E+010.0000000000E+00+
*       -6.000000000E+00               0
GRID*               5671               0-3.175000000E+010.0000000000E+00+
*       -6.000000000E+00               0
GRID*               5672               0-3.125000000E+010.0000000000E+00+
*       -6.000000000E+00               0
GRID*               5673               0-3.075000000E+010.0000000000E+00+
*       -6.000000000E+00               0
GRID*               5674               0-3.025000000E+010.0000000000E+00+
*       -6.000000000E+00               0
GRID*               5675               0-2.975000000E+010.0000000000E+00+
*       -6.000000000E+00               0
GRID*               5676               0-2.925000000E+010.0000000000E+00+
*       -6.000000000E+00               0
GRID*               5677               0-2.875000000E+010.0000000000E+00+
*       -6.000000000E+00               0
GRID*               5678               0-2.825000000E+010.0000000000E+00+
*       -6.000000000E+00               0
GRID*               5679               0-2.775000000E+010.0000000000E+00+
*       -6.000000000E+00               0
GRID*               5680               0-2.725000000E+010.0000000000E+00+
*       -6.000000000E+00               0
GRID*               5681               0-2.675000000E+010.0000000000E+00+
*       -6.000000000E+00               0
GRID*               5682               0-2.625000000E+010.0000000000E+00+
*       -6.000000000E+00               0
GRID*               5683               0-2.575000000E+010.0000000000E+00+
*       -6.000000000E+00               0
GRID*               5684               0-2.525000000E+010.0000000000E+00+
*       -6.000000000E+00               0
GRID*               5685               0-2.475000000E+010.0000000000E+00+
*       -6.000000000E+00               0
GRID*               5686               0-2.425000000E+010.0000000000E+00+
*       -6.000000000E+00               0
GRID*               5687               0-2.375000000E+010.0000000000E+00+
*       -6.000000000E+00               0
GRID*               5688               0-2.325000000E+010.0000000000E+00+
*       -6.000000000E+00               0
GRID*               5689               0-2.275000000E+010.0000000000E+00+
*       -6.000000000E+00               0
GRID*               5690               0-2.225000000E+010.0000000000E+00+
*       -6.000000000E+00               0
GRID*               5691               0-2.175000000E+010.0000000000E+00+
*       -6.000000000E+00               0
GRID*               5692               0-2.125000000E+010.0000000000E+00+
*       -6.000000000E+00               0
GRID*               5693               0-2.075000000E+010.0000000000E+00+
*       -6.000000000E+00               0
GRID*               5694               0-2.025000000E+010.0000000000E+00+
*       -6.000000000E+00               0
GRID*               5695               0-1.975000000E+010.0000000000E+00+
*       -6.000000000E+00               0
GRID*               5696               0-1.925000000E+010.0000000000E+00+
*       -6.000000000E+00               0
GRID*               5697               0-1.875000000E+010.0000000000E+00+
*       -6.000000000E+00               0
GRID*               5698               0-1.825000000E+010.0000000000E+00+
*       -6.000000000E+00               0
GRID*               5699               0-1.775000000E+010.0000000000E+00+
*       -6.000000000E+00               0
GRID*               5700               0-1.725000000E+010.0000000000E+00+
*       -6.000000000E+00               0
GRID*               5701               0-1.675000000E+010.0000000000E+00+
*       -6.000000000E+00               0
GRID*               5702               0-1.625000000E+010.0000000000E+00+
*       -6.000000000E+00               0
GRID*               5703               0-1.575000000E+010.0000000000E+00+
*       -6.000000000E+00               0
GRID*               5704               0-1.525000000E+010.0000000000E+00+
*       -6.000000000E+00               0
GRID*               5705               0-1.475000000E+010.0000000000E+00+
*       -6.000000000E+00               0
GRID*               5706               0-1.425000000E+010.0000000000E+00+
*       -6.000000000E+00               0
GRID*               5707               0-1.375000000E+010.0000000000E+00+
*       -6.000000000E+00               0
GRID*               5708               0-1.325000000E+010.0000000000E+00+
*       -6.000000000E+00               0
GRID*               5709               0-1.275000000E+010.0000000000E+00+
*       -6.000000000E+00               0
GRID*               5710               0-1.225000000E+010.0000000000E+00+
*       -6.000000000E+00               0
GRID*               5711               0-1.175000000E+010.0000000000E+00+
*       -6.000000000E+00               0
GRID*               5712               0-1.125000000E+010.0000000000E+00+
*       -6.000000000E+00               0
GRID*               5713               0-1.075000000E+010.0000000000E+00+
*       -6.000000000E+00               0
GRID*               5714               0-1.025000000E+010.0000000000E+00+
*       -6.000000000E+00               0
GRID*               5715               0-9.750000000E+000.0000000000E+00+
*       -6.000000000E+00               0
GRID*               5716               0-9.250000000E+000.0000000000E+00+
*       -6.000000000E+00               0
GRID*               5717               0-8.750000000E+000.0000000000E+00+
*       -6.000000000E+00               0
GRID*               5718               0-8.250000000E+000.0000000000E+00+
*       -6.000000000E+00               0
GRID*               5719               0-7.750000000E+000.0000000000E+00+
*       -6.000000000E+00               0
GRID*               5720               0-7.250000000E+000.0000000000E+00+
*       -6.000000000E+00               0
GRID*               5721               0-6.750000000E+000.0000000000E+00+
*       -6.000000000E+00               0
GRID*               5722               0-6.250000000E+000.0000000000E+00+
*       -6.000000000E+00               0
GRID*               5723               0-5.750000000E+000.0000000000E+00+
*       -6.000000000E+00               0
GRID*               5724               0-5.250000000E+000.0000000000E+00+
*       -6.000000000E+00               0
GRID*               5725               0-4.750000000E+000.0000000000E+00+
*       -6.000000000E+00               0
GRID*               5726               0-4.250000000E+000.0000000000E+00+
*       -6.000000000E+00               0
GRID*               5727               0-3.750000000E+000.0000000000E+00+
*       -6.000000000E+00               0
GRID*               5728               0-3.250000000E+000.0000000000E+00+
*       -6.000000000E+00               0
GRID*               5729               0-2.750000000E+000.0000000000E+00+
*       -6.000000000E+00               0
GRID*               5730               0-2.250000000E+000.0000000000E+00+
*       -6.000000000E+00               0
GRID*               5731               0-1.750000000E+000.0000000000E+00+
*       -6.000000000E+00               0
GRID*               5732               0-1.250000000E+000.0000000000E+00+
*       -6.000000000E+00               0
GRID*               5733               0-7.500000000E-010.0000000000E+00+
*       -6.000000000E+00               0
GRID*               5734               0-2.500000000E-010.0000000000E+00+
*       -6.000000000E+00               0
GRID*               5735               02.5000000000E-010.0000000000E+00+
*       -6.000000000E+00               0
GRID*               5736               07.5000000000E-010.0000000000E+00+
*       -6.000000000E+00               0
GRID*               5737               01.2500000000E+000.0000000000E+00+
*       -6.000000000E+00               0
GRID*               5738               01.7500000000E+000.0000000000E+00+
*       -6.000000000E+00               0
GRID*               5739               02.2500000000E+000.0000000000E+00+
*       -6.000000000E+00               0
GRID*               5740               02.7500000000E+000.0000000000E+00+
*       -6.000000000E+00               0
GRID*               5741               03.2500000000E+000.0000000000E+00+
*       -6.000000000E+00               0
GRID*               5742               03.7500000000E+000.0000000000E+00+
*       -6.000000000E+00               0
GRID*               5743               04.2500000000E+000.0000000000E+00+
*       -6.000000000E+00               0
GRID*               5744               04.7500000000E+000.0000000000E+00+
*       -6.000000000E+00               0
GRID*               5745               05.2500000000E+000.0000000000E+00+
*       -6.000000000E+00               0
GRID*               5746               05.7500000000E+000.0000000000E+00+
*       -6.000000000E+00               0
GRID*               5747               06.2500000000E+000.0000000000E+00+
*       -6.000000000E+00               0
GRID*               5748               06.7500000000E+000.0000000000E+00+
*       -6.000000000E+00               0
GRID*               5749               07.2500000000E+000.0000000000E+00+
*       -6.000000000E+00               0
GRID*               5750               07.7500000000E+000.0000000000E+00+
*       -6.000000000E+00               0
GRID*               5751               08.2500000000E+000.0000000000E+00+
*       -6.000000000E+00               0
GRID*               5752               08.7500000000E+000.0000000000E+00+
*       -6.000000000E+00               0
GRID*               5753               09.2500000000E+000.0000000000E+00+
*       -6.000000000E+00               0
GRID*               5754               09.7500000000E+000.0000000000E+00+
*       -6.000000000E+00               0
GRID*               5755               01.0250000000E+010.0000000000E+00+
*       -6.000000000E+00               0
GRID*               5756               01.0750000000E+010.0000000000E+00+
*       -6.000000000E+00               0
GRID*               5757               01.1250000000E+010.0000000000E+00+
*       -6.000000000E+00               0
GRID*               5758               01.1750000000E+010.0000000000E+00+
*       -6.000000000E+00               0
GRID*               5759               01.2250000000E+010.0000000000E+00+
*       -6.000000000E+00               0
GRID*               5760               01.2750000000E+010.0000000000E+00+
*       -6.000000000E+00               0
GRID*               5761               01.3250000000E+010.0000000000E+00+
*       -6.000000000E+00               0
GRID*               5762               01.3750000000E+010.0000000000E+00+
*       -6.000000000E+00               0
GRID*               5763               01.4250000000E+010.0000000000E+00+
*       -6.000000000E+00               0
GRID*               5764               01.4750000000E+010.0000000000E+00+
*       -6.000000000E+00               0
GRID*               5765               01.5250000000E+010.0000000000E+00+
*       -6.000000000E+00               0
GRID*               5766               01.5750000000E+010.0000000000E+00+
*       -6.000000000E+00               0
GRID*               5767               01.6250000000E+010.0000000000E+00+
*       -6.000000000E+00               0
GRID*               5768               01.6750000000E+010.0000000000E+00+
*       -6.000000000E+00               0
GRID*               5769               01.7250000000E+010.0000000000E+00+
*       -6.000000000E+00               0
GRID*               5770               01.7750000000E+010.0000000000E+00+
*       -6.000000000E+00               0
GRID*               5771               01.8250000000E+010.0000000000E+00+
*       -6.000000000E+00               0
GRID*               5772               01.8750000000E+010.0000000000E+00+
*       -6.000000000E+00               0
GRID*               5773               01.9250000000E+010.0000000000E+00+
*       -6.000000000E+00               0
GRID*               5774               01.9750000000E+010.0000000000E+00+
*       -6.000000000E+00               0
GRID*               5775               02.0250000000E+010.0000000000E+00+
*       -6.000000000E+00               0
GRID*               5776               02.0750000000E+010.0000000000E+00+
*       -6.000000000E+00               0
GRID*               5777               02.1250000000E+010.0000000000E+00+
*       -6.000000000E+00               0
GRID*               5778               02.1750000000E+010.0000000000E+00+
*       -6.000000000E+00               0
GRID*               5779               02.2250000000E+010.0000000000E+00+
*       -6.000000000E+00               0
GRID*               5780               02.2750000000E+010.0000000000E+00+
*       -6.000000000E+00               0
GRID*               5781               02.3250000000E+010.0000000000E+00+
*       -6.000000000E+00               0
GRID*               5782               02.3750000000E+010.0000000000E+00+
*       -6.000000000E+00               0
GRID*               5783               02.4250000000E+010.0000000000E+00+
*       -6.000000000E+00               0
GRID*               5784               02.4750000000E+010.0000000000E+00+
*       -6.000000000E+00               0
GRID*               5785               02.5250000000E+010.0000000000E+00+
*       -6.000000000E+00               0
GRID*               5786               02.5750000000E+010.0000000000E+00+
*       -6.000000000E+00               0
GRID*               5787               02.6250000000E+010.0000000000E+00+
*       -6.000000000E+00               0
GRID*               5788               02.6750000000E+010.0000000000E+00+
*       -6.000000000E+00               0
GRID*               5789               02.7250000000E+010.0000000000E+00+
*       -6.000000000E+00               0
GRID*               5790               02.7750000000E+010.0000000000E+00+
*       -6.000000000E+00               0
GRID*               5791               02.8250000000E+010.0000000000E+00+
*       -6.000000000E+00               0
GRID*               5792               02.8750000000E+010.0000000000E+00+
*       -6.000000000E+00               0
GRID*               5793               02.9250000000E+010.0000000000E+00+
*       -6.000000000E+00               0
GRID*               5794               02.9750000000E+010.0000000000E+00+
*       -6.000000000E+00               0
GRID*               5795               03.0250000000E+010.0000000000E+00+
*       -6.000000000E+00               0
GRID*               5796               03.0750000000E+010.0000000000E+00+
*       -6.000000000E+00               0
GRID*               5797               03.1250000000E+010.0000000000E+00+
*       -6.000000000E+00               0
GRID*               5798               03.1750000000E+010.0000000000E+00+
*       -6.000000000E+00               0
GRID*               5799               03.2250000000E+010.0000000000E+00+
*       -6.000000000E+00               0
GRID*               5800               0-2.200000000E+010.0000000000E+00+
*       -3.500000000E+00               0
GRID*               5801               0-2.150000000E+010.0000000000E+00+
*       -3.500000000E+00               0
GRID*               5802               0-2.100000000E+010.0000000000E+00+
*       -3.500000000E+00               0
GRID*               5803               0-2.050000000E+010.0000000000E+00+
*       -3.500000000E+00               0
GRID*               5804               0-2.000000000E+010.0000000000E+00+
*       -3.500000000E+00               0
GRID*               5805               0-1.950000000E+010.0000000000E+00+
*       -3.500000000E+00               0
GRID*               5806               0-1.900000000E+010.0000000000E+00+
*       -3.500000000E+00               0
GRID*               5807               0-1.850000000E+010.0000000000E+00+
*       -3.500000000E+00               0
GRID*               5808               0-1.800000000E+010.0000000000E+00+
*       -3.500000000E+00               0
GRID*               5809               0-1.750000000E+010.0000000000E+00+
*       -3.500000000E+00               0
GRID*               5810               0-1.700000000E+010.0000000000E+00+
*       -3.500000000E+00               0
GRID*               5811               0-1.650000000E+010.0000000000E+00+
*       -3.500000000E+00               0
GRID*               5812               0-1.600000000E+010.0000000000E+00+
*       -3.500000000E+00               0
GRID*               5813               0-1.550000000E+010.0000000000E+00+
*       -3.500000000E+00               0
GRID*               5814               0-1.500000000E+010.0000000000E+00+
*       -3.500000000E+00               0
GRID*               5815               0-1.450000000E+010.0000000000E+00+
*       -3.500000000E+00               0
GRID*               5816               0-1.400000000E+010.0000000000E+00+
*       -3.500000000E+00               0
GRID*               5817               0-1.350000000E+010.0000000000E+00+
*       -3.500000000E+00               0
GRID*               5818               0-1.300000000E+010.0000000000E+00+
*       -3.500000000E+00               0
GRID*               5819               0-1.250000000E+010.0000000000E+00+
*       -3.500000000E+00               0
GRID*               5820               0-1.200000000E+010.0000000000E+00+
*       -3.500000000E+00               0
GRID*               5821               0-1.150000000E+010.0000000000E+00+
*       -3.500000000E+00               0
GRID*               5822               0-1.100000000E+010.0000000000E+00+
*       -3.500000000E+00               0
GRID*               5823               0-1.050000000E+010.0000000000E+00+
*       -3.500000000E+00               0
GRID*               5824               0-1.000000000E+010.0000000000E+00+
*       -3.500000000E+00               0
GRID*               5825               0-9.500000000E+000.0000000000E+00+
*       -3.500000000E+00               0
GRID*               5826               0-9.000000000E+000.0000000000E+00+
*       -3.500000000E+00               0
GRID*               5827               0-8.500000000E+000.0000000000E+00+
*       -3.500000000E+00               0
GRID*               5828               0-8.000000000E+000.0000000000E+00+
*       -3.500000000E+00               0
GRID*               5829               0-7.500000000E+000.0000000000E+00+
*       -3.500000000E+00               0
GRID*               5830               0-7.000000000E+000.0000000000E+00+
*       -3.500000000E+00               0
GRID*               5831               0-6.500000000E+000.0000000000E+00+
*       -3.500000000E+00               0
GRID*               5832               0-6.000000000E+000.0000000000E+00+
*       -3.500000000E+00               0
GRID*               5833               0-5.500000000E+000.0000000000E+00+
*       -3.500000000E+00               0
GRID*               5834               0-5.000000000E+000.0000000000E+00+
*       -3.500000000E+00               0
GRID*               5835               0-4.500000000E+000.0000000000E+00+
*       -3.500000000E+00               0
GRID*               5836               0-4.000000000E+000.0000000000E+00+
*       -3.500000000E+00               0
GRID*               5837               0-3.500000000E+000.0000000000E+00+
*       -3.500000000E+00               0
GRID*               5838               0-3.000000000E+000.0000000000E+00+
*       -3.500000000E+00               0
GRID*               5839               0-2.500000000E+000.0000000000E+00+
*       -3.500000000E+00               0
GRID*               5840               0-2.000000000E+000.0000000000E+00+
*       -3.500000000E+00               0
GRID*               5841               0-1.500000000E+000.0000000000E+00+
*       -3.500000000E+00               0
GRID*               5842               0-1.000000000E+000.0000000000E+00+
*       -3.500000000E+00               0
GRID*               5843               0-5.000000000E-010.0000000000E+00+
*       -3.500000000E+00               0
GRID*               5844               00.0000000000E+000.0000000000E+00+
*       -3.500000000E+00               0
GRID*               5845               05.0000000000E-010.0000000000E+00+
*       -3.500000000E+00               0
GRID*               5846               01.0000000000E+000.0000000000E+00+
*       -3.500000000E+00               0
GRID*               5847               01.5000000000E+000.0000000000E+00+
*       -3.500000000E+00               0
GRID*               5848               02.0000000000E+000.0000000000E+00+
*       -3.500000000E+00               0
GRID*               5849               02.5000000000E+000.0000000000E+00+
*       -3.500000000E+00               0
GRID*               5850               03.0000000000E+000.0000000000E+00+
*       -3.500000000E+00               0
GRID*               5851               03.5000000000E+000.0000000000E+00+
*       -3.500000000E+00               0
GRID*               5852               04.0000000000E+000.0000000000E+00+
*       -3.500000000E+00               0
GRID*               5853               04.5000000000E+000.0000000000E+00+
*       -3.500000000E+00               0
GRID*               5854               05.0000000000E+000.0000000000E+00+
*       -3.500000000E+00               0
GRID*               5855               05.5000000000E+000.0000000000E+00+
*       -3.500000000E+00               0
GRID*               5856               06.0000000000E+000.0000000000E+00+
*       -3.500000000E+00               0
GRID*               5857               06.5000000000E+000.0000000000E+00+
*       -3.500000000E+00               0
GRID*               5858               07.0000000000E+000.0000000000E+00+
*       -3.500000000E+00               0
GRID*               5859               07.5000000000E+000.0000000000E+00+
*       -3.500000000E+00               0
GRID*               5860               08.0000000000E+000.0000000000E+00+
*       -3.500000000E+00               0
GRID*               5861               08.5000000000E+000.0000000000E+00+
*       -3.500000000E+00               0
GRID*               5862               09.0000000000E+000.0000000000E+00+
*       -3.500000000E+00               0
GRID*               5863               09.5000000000E+000.0000000000E+00+
*       -3.500000000E+00               0
GRID*               5864               01.0000000000E+010.0000000000E+00+
*       -3.500000000E+00               0
GRID*               5865               01.0500000000E+010.0000000000E+00+
*       -3.500000000E+00               0
GRID*               5866               01.1000000000E+010.0000000000E+00+
*       -3.500000000E+00               0
GRID*               5867               01.1500000000E+010.0000000000E+00+
*       -3.500000000E+00               0
GRID*               5868               01.2000000000E+010.0000000000E+00+
*       -3.500000000E+00               0
GRID*               5869               01.2500000000E+010.0000000000E+00+
*       -3.500000000E+00               0
GRID*               5870               01.3000000000E+010.0000000000E+00+
*       -3.500000000E+00               0
GRID*               5871               01.3500000000E+010.0000000000E+00+
*       -3.500000000E+00               0
GRID*               5872               01.4000000000E+010.0000000000E+00+
*       -3.500000000E+00               0
GRID*               5873               01.4500000000E+010.0000000000E+00+
*       -3.500000000E+00               0
GRID*               5874               01.5000000000E+010.0000000000E+00+
*       -3.500000000E+00               0
GRID*               5875               01.5500000000E+010.0000000000E+00+
*       -3.500000000E+00               0
GRID*               5876               01.6000000000E+010.0000000000E+00+
*       -3.500000000E+00               0
GRID*               5877               01.6500000000E+010.0000000000E+00+
*       -3.500000000E+00               0
GRID*               5878               01.7000000000E+010.0000000000E+00+
*       -3.500000000E+00               0
GRID*               5879               01.7500000000E+010.0000000000E+00+
*       -3.500000000E+00               0
GRID*               5880               01.8000000000E+010.0000000000E+00+
*       -3.500000000E+00               0
GRID*               5881               01.8500000000E+010.0000000000E+00+
*       -3.500000000E+00               0
GRID*               5882               01.9000000000E+010.0000000000E+00+
*       -3.500000000E+00               0
GRID*               5883               01.9500000000E+010.0000000000E+00+
*       -3.500000000E+00               0
GRID*               5884               02.0000000000E+010.0000000000E+00+
*       -3.500000000E+00               0
GRID*               5885               02.0500000000E+010.0000000000E+00+
*       -3.500000000E+00               0
GRID*               5886               02.1000000000E+010.0000000000E+00+
*       -3.500000000E+00               0
GRID*               5887               02.1500000000E+010.0000000000E+00+
*       -3.500000000E+00               0
GRID*               5888               02.2000000000E+010.0000000000E+00+
*       -3.500000000E+00               0
GRID*               5889               02.2250000000E+010.0000000000E+00+
*       -3.500000000E+00               0
GRID*               5890               02.1750000000E+010.0000000000E+00+
*       -3.500000000E+00               0
GRID*               5891               02.1250000000E+010.0000000000E+00+
*       -3.500000000E+00               0
GRID*               5892               02.0750000000E+010.0000000000E+00+
*       -3.500000000E+00               0
GRID*               5893               02.0250000000E+010.0000000000E+00+
*       -3.500000000E+00               0
GRID*               5894               01.9750000000E+010.0000000000E+00+
*       -3.500000000E+00               0
GRID*               5895               01.9250000000E+010.0000000000E+00+
*       -3.500000000E+00               0
GRID*               5896               01.8750000000E+010.0000000000E+00+
*       -3.500000000E+00               0
GRID*               5897               01.8250000000E+010.0000000000E+00+
*       -3.500000000E+00               0
GRID*               5898               01.7750000000E+010.0000000000E+00+
*       -3.500000000E+00               0
GRID*               5899               01.7250000000E+010.0000000000E+00+
*       -3.500000000E+00               0
GRID*               5900               01.6750000000E+010.0000000000E+00+
*       -3.500000000E+00               0
GRID*               5901               01.6250000000E+010.0000000000E+00+
*       -3.500000000E+00               0
GRID*               5902               01.5750000000E+010.0000000000E+00+
*       -3.500000000E+00               0
GRID*               5903               01.5250000000E+010.0000000000E+00+
*       -3.500000000E+00               0
GRID*               5904               01.4750000000E+010.0000000000E+00+
*       -3.500000000E+00               0
GRID*               5905               01.4250000000E+010.0000000000E+00+
*       -3.500000000E+00               0
GRID*               5906               01.3750000000E+010.0000000000E+00+
*       -3.500000000E+00               0
GRID*               5907               01.3250000000E+010.0000000000E+00+
*       -3.500000000E+00               0
GRID*               5908               01.2750000000E+010.0000000000E+00+
*       -3.500000000E+00               0
GRID*               5909               01.2250000000E+010.0000000000E+00+
*       -3.500000000E+00               0
GRID*               5910               01.1750000000E+010.0000000000E+00+
*       -3.500000000E+00               0
GRID*               5911               01.1250000000E+010.0000000000E+00+
*       -3.500000000E+00               0
GRID*               5912               01.0750000000E+010.0000000000E+00+
*       -3.500000000E+00               0
GRID*               5913               01.0250000000E+010.0000000000E+00+
*       -3.500000000E+00               0
GRID*               5914               09.7500000000E+000.0000000000E+00+
*       -3.500000000E+00               0
GRID*               5915               09.2500000000E+000.0000000000E+00+
*       -3.500000000E+00               0
GRID*               5916               08.7500000000E+000.0000000000E+00+
*       -3.500000000E+00               0
GRID*               5917               08.2500000000E+000.0000000000E+00+
*       -3.500000000E+00               0
GRID*               5918               07.7500000000E+000.0000000000E+00+
*       -3.500000000E+00               0
GRID*               5919               07.2500000000E+000.0000000000E+00+
*       -3.500000000E+00               0
GRID*               5920               06.7500000000E+000.0000000000E+00+
*       -3.500000000E+00               0
GRID*               5921               06.2500000000E+000.0000000000E+00+
*       -3.500000000E+00               0
GRID*               5922               05.7500000000E+000.0000000000E+00+
*       -3.500000000E+00               0
GRID*               5923               05.2500000000E+000.0000000000E+00+
*       -3.500000000E+00               0
GRID*               5924               04.7500000000E+000.0000000000E+00+
*       -3.500000000E+00               0
GRID*               5925               04.2500000000E+000.0000000000E+00+
*       -3.500000000E+00               0
GRID*               5926               03.7500000000E+000.0000000000E+00+
*       -3.500000000E+00               0
GRID*               5927               03.2500000000E+000.0000000000E+00+
*       -3.500000000E+00               0
GRID*               5928               02.7500000000E+000.0000000000E+00+
*       -3.500000000E+00               0
GRID*               5929               02.2500000000E+000.0000000000E+00+
*       -3.500000000E+00               0
GRID*               5930               01.7500000000E+000.0000000000E+00+
*       -3.500000000E+00               0
GRID*               5931               01.2500000000E+000.0000000000E+00+
*       -3.500000000E+00               0
GRID*               5932               07.5000000000E-010.0000000000E+00+
*       -3.500000000E+00               0
GRID*               5933               02.5000000000E-010.0000000000E+00+
*       -3.500000000E+00               0
GRID*               5934               0-2.500000000E-010.0000000000E+00+
*       -3.500000000E+00               0
GRID*               5935               0-7.500000000E-010.0000000000E+00+
*       -3.500000000E+00               0
GRID*               5936               0-1.250000000E+000.0000000000E+00+
*       -3.500000000E+00               0
GRID*               5937               0-1.750000000E+000.0000000000E+00+
*       -3.500000000E+00               0
GRID*               5938               0-2.250000000E+000.0000000000E+00+
*       -3.500000000E+00               0
GRID*               5939               0-2.750000000E+000.0000000000E+00+
*       -3.500000000E+00               0
GRID*               5940               0-3.250000000E+000.0000000000E+00+
*       -3.500000000E+00               0
GRID*               5941               0-3.750000000E+000.0000000000E+00+
*       -3.500000000E+00               0
GRID*               5942               0-4.250000000E+000.0000000000E+00+
*       -3.500000000E+00               0
GRID*               5943               0-4.750000000E+000.0000000000E+00+
*       -3.500000000E+00               0
GRID*               5944               0-5.250000000E+000.0000000000E+00+
*       -3.500000000E+00               0
GRID*               5945               0-5.750000000E+000.0000000000E+00+
*       -3.500000000E+00               0
GRID*               5946               0-6.250000000E+000.0000000000E+00+
*       -3.500000000E+00               0
GRID*               5947               0-6.750000000E+000.0000000000E+00+
*       -3.500000000E+00               0
GRID*               5948               0-7.250000000E+000.0000000000E+00+
*       -3.500000000E+00               0
GRID*               5949               0-7.750000000E+000.0000000000E+00+
*       -3.500000000E+00               0
GRID*               5950               0-8.250000000E+000.0000000000E+00+
*       -3.500000000E+00               0
GRID*               5951               0-8.750000000E+000.0000000000E+00+
*       -3.500000000E+00               0
GRID*               5952               0-9.250000000E+000.0000000000E+00+
*       -3.500000000E+00               0
GRID*               5953               0-9.750000000E+000.0000000000E+00+
*       -3.500000000E+00               0
GRID*               5954               0-1.025000000E+010.0000000000E+00+
*       -3.500000000E+00               0
GRID*               5955               0-1.075000000E+010.0000000000E+00+
*       -3.500000000E+00               0
GRID*               5956               0-1.125000000E+010.0000000000E+00+
*       -3.500000000E+00               0
GRID*               5957               0-1.175000000E+010.0000000000E+00+
*       -3.500000000E+00               0
GRID*               5958               0-1.225000000E+010.0000000000E+00+
*       -3.500000000E+00               0
GRID*               5959               0-1.275000000E+010.0000000000E+00+
*       -3.500000000E+00               0
GRID*               5960               0-1.325000000E+010.0000000000E+00+
*       -3.500000000E+00               0
GRID*               5961               0-1.375000000E+010.0000000000E+00+
*       -3.500000000E+00               0
GRID*               5962               0-1.425000000E+010.0000000000E+00+
*       -3.500000000E+00               0
GRID*               5963               0-1.475000000E+010.0000000000E+00+
*       -3.500000000E+00               0
GRID*               5964               0-1.525000000E+010.0000000000E+00+
*       -3.500000000E+00               0
GRID*               5965               0-1.575000000E+010.0000000000E+00+
*       -3.500000000E+00               0
GRID*               5966               0-1.625000000E+010.0000000000E+00+
*       -3.500000000E+00               0
GRID*               5967               0-1.675000000E+010.0000000000E+00+
*       -3.500000000E+00               0
GRID*               5968               0-1.725000000E+010.0000000000E+00+
*       -3.500000000E+00               0
GRID*               5969               0-1.775000000E+010.0000000000E+00+
*       -3.500000000E+00               0
GRID*               5970               0-1.825000000E+010.0000000000E+00+
*       -3.500000000E+00               0
GRID*               5971               0-1.875000000E+010.0000000000E+00+
*       -3.500000000E+00               0
GRID*               5972               0-1.925000000E+010.0000000000E+00+
*       -3.500000000E+00               0
GRID*               5973               0-1.975000000E+010.0000000000E+00+
*       -3.500000000E+00               0
GRID*               5974               0-2.025000000E+010.0000000000E+00+
*       -3.500000000E+00               0
GRID*               5975               0-2.075000000E+010.0000000000E+00+
*       -3.500000000E+00               0
GRID*               5976               0-2.125000000E+010.0000000000E+00+
*       -3.500000000E+00               0
GRID*               5977               0-2.175000000E+010.0000000000E+00+
*       -3.500000000E+00               0
GRID*               5978               0-2.225000000E+010.0000000000E+00+
*       -3.500000000E+00               0
GRID*               5979               02.2000000000E+010.0000000000E+00+
*       3.5000000000E+00               0
GRID*               5980               02.1500000000E+010.0000000000E+00+
*       3.5000000000E+00               0
GRID*               5981               02.1000000000E+010.0000000000E+00+
*       3.5000000000E+00               0
GRID*               5982               02.0500000000E+010.0000000000E+00+
*       3.5000000000E+00               0
GRID*               5983               02.0000000000E+010.0000000000E+00+
*       3.5000000000E+00               0
GRID*               5984               01.9500000000E+010.0000000000E+00+
*       3.5000000000E+00               0
GRID*               5985               01.9000000000E+010.0000000000E+00+
*       3.5000000000E+00               0
GRID*               5986               01.8500000000E+010.0000000000E+00+
*       3.5000000000E+00               0
GRID*               5987               01.8000000000E+010.0000000000E+00+
*       3.5000000000E+00               0
GRID*               5988               01.7500000000E+010.0000000000E+00+
*       3.5000000000E+00               0
GRID*               5989               01.7000000000E+010.0000000000E+00+
*       3.5000000000E+00               0
GRID*               5990               01.6500000000E+010.0000000000E+00+
*       3.5000000000E+00               0
GRID*               5991               01.6000000000E+010.0000000000E+00+
*       3.5000000000E+00               0
GRID*               5992               01.5500000000E+010.0000000000E+00+
*       3.5000000000E+00               0
GRID*               5993               01.5000000000E+010.0000000000E+00+
*       3.5000000000E+00               0
GRID*               5994               01.4500000000E+010.0000000000E+00+
*       3.5000000000E+00               0
GRID*               5995               01.4000000000E+010.0000000000E+00+
*       3.5000000000E+00               0
GRID*               5996               01.3500000000E+010.0000000000E+00+
*       3.5000000000E+00               0
GRID*               5997               01.3000000000E+010.0000000000E+00+
*       3.5000000000E+00               0
GRID*               5998               01.2500000000E+010.0000000000E+00+
*       3.5000000000E+00               0
GRID*               5999               01.2000000000E+010.0000000000E+00+
*       3.5000000000E+00               0
GRID*               6000               01.1500000000E+010.0000000000E+00+
*       3.5000000000E+00               0
GRID*               6001               01.1000000000E+010.0000000000E+00+
*       3.5000000000E+00               0
GRID*               6002               01.0500000000E+010.0000000000E+00+
*       3.5000000000E+00               0
GRID*               6003               01.0000000000E+010.0000000000E+00+
*       3.5000000000E+00               0
GRID*               6004               09.5000000000E+000.0000000000E+00+
*       3.5000000000E+00               0
GRID*               6005               09.0000000000E+000.0000000000E+00+
*       3.5000000000E+00               0
GRID*               6006               08.5000000000E+000.0000000000E+00+
*       3.5000000000E+00               0
GRID*               6007               08.0000000000E+000.0000000000E+00+
*       3.5000000000E+00               0
GRID*               6008               07.5000000000E+000.0000000000E+00+
*       3.5000000000E+00               0
GRID*               6009               07.0000000000E+000.0000000000E+00+
*       3.5000000000E+00               0
GRID*               6010               06.5000000000E+000.0000000000E+00+
*       3.5000000000E+00               0
GRID*               6011               06.0000000000E+000.0000000000E+00+
*       3.5000000000E+00               0
GRID*               6012               05.5000000000E+000.0000000000E+00+
*       3.5000000000E+00               0
GRID*               6013               05.0000000000E+000.0000000000E+00+
*       3.5000000000E+00               0
GRID*               6014               04.5000000000E+000.0000000000E+00+
*       3.5000000000E+00               0
GRID*               6015               04.0000000000E+000.0000000000E+00+
*       3.5000000000E+00               0
GRID*               6016               03.5000000000E+000.0000000000E+00+
*       3.5000000000E+00               0
GRID*               6017               03.0000000000E+000.0000000000E+00+
*       3.5000000000E+00               0
GRID*               6018               02.5000000000E+000.0000000000E+00+
*       3.5000000000E+00               0
GRID*               6019               02.0000000000E+000.0000000000E+00+
*       3.5000000000E+00               0
GRID*               6020               01.5000000000E+000.0000000000E+00+
*       3.5000000000E+00               0
GRID*               6021               01.0000000000E+000.0000000000E+00+
*       3.5000000000E+00               0
GRID*               6022               05.0000000000E-010.0000000000E+00+
*       3.5000000000E+00               0
GRID*               6023               00.0000000000E+000.0000000000E+00+
*       3.5000000000E+00               0
GRID*               6024               0-5.000000000E-010.0000000000E+00+
*       3.5000000000E+00               0
GRID*               6025               0-1.000000000E+000.0000000000E+00+
*       3.5000000000E+00               0
GRID*               6026               0-1.500000000E+000.0000000000E+00+
*       3.5000000000E+00               0
GRID*               6027               0-2.000000000E+000.0000000000E+00+
*       3.5000000000E+00               0
GRID*               6028               0-2.500000000E+000.0000000000E+00+
*       3.5000000000E+00               0
GRID*               6029               0-3.000000000E+000.0000000000E+00+
*       3.5000000000E+00               0
GRID*               6030               0-3.500000000E+000.0000000000E+00+
*       3.5000000000E+00               0
GRID*               6031               0-4.000000000E+000.0000000000E+00+
*       3.5000000000E+00               0
GRID*               6032               0-4.500000000E+000.0000000000E+00+
*       3.5000000000E+00               0
GRID*               6033               0-5.000000000E+000.0000000000E+00+
*       3.5000000000E+00               0
GRID*               6034               0-5.500000000E+000.0000000000E+00+
*       3.5000000000E+00               0
GRID*               6035               0-6.000000000E+000.0000000000E+00+
*       3.5000000000E+00               0
GRID*               6036               0-6.500000000E+000.0000000000E+00+
*       3.5000000000E+00               0
GRID*               6037               0-7.000000000E+000.0000000000E+00+
*       3.5000000000E+00               0
GRID*               6038               0-7.500000000E+000.0000000000E+00+
*       3.5000000000E+00               0
GRID*               6039               0-8.000000000E+000.0000000000E+00+
*       3.5000000000E+00               0
GRID*               6040               0-8.500000000E+000.0000000000E+00+
*       3.5000000000E+00               0
GRID*               6041               0-9.000000000E+000.0000000000E+00+
*       3.5000000000E+00               0
GRID*               6042               0-9.500000000E+000.0000000000E+00+
*       3.5000000000E+00               0
GRID*               6043               0-1.000000000E+010.0000000000E+00+
*       3.5000000000E+00               0
GRID*               6044               0-1.050000000E+010.0000000000E+00+
*       3.5000000000E+00               0
GRID*               6045               0-1.100000000E+010.0000000000E+00+
*       3.5000000000E+00               0
GRID*               6046               0-1.150000000E+010.0000000000E+00+
*       3.5000000000E+00               0
GRID*               6047               0-1.200000000E+010.0000000000E+00+
*       3.5000000000E+00               0
GRID*               6048               0-1.250000000E+010.0000000000E+00+
*       3.5000000000E+00               0
GRID*               6049               0-1.300000000E+010.0000000000E+00+
*       3.5000000000E+00               0
GRID*               6050               0-1.350000000E+010.0000000000E+00+
*       3.5000000000E+00               0
GRID*               6051               0-1.400000000E+010.0000000000E+00+
*       3.5000000000E+00               0
GRID*               6052               0-1.450000000E+010.0000000000E+00+
*       3.5000000000E+00               0
GRID*               6053               0-1.500000000E+010.0000000000E+00+
*       3.5000000000E+00               0
GRID*               6054               0-1.550000000E+010.0000000000E+00+
*       3.5000000000E+00               0
GRID*               6055               0-1.600000000E+010.0000000000E+00+
*       3.5000000000E+00               0
GRID*               6056               0-1.650000000E+010.0000000000E+00+
*       3.5000000000E+00               0
GRID*               6057               0-1.700000000E+010.0000000000E+00+
*       3.5000000000E+00               0
GRID*               6058               0-1.750000000E+010.0000000000E+00+
*       3.5000000000E+00               0
GRID*               6059               0-1.800000000E+010.0000000000E+00+
*       3.5000000000E+00               0
GRID*               6060               0-1.850000000E+010.0000000000E+00+
*       3.5000000000E+00               0
GRID*               6061               0-1.900000000E+010.0000000000E+00+
*       3.5000000000E+00               0
GRID*               6062               0-1.950000000E+010.0000000000E+00+
*       3.5000000000E+00               0
GRID*               6063               0-2.000000000E+010.0000000000E+00+
*       3.5000000000E+00               0
GRID*               6064               0-2.050000000E+010.0000000000E+00+
*       3.5000000000E+00               0
GRID*               6065               0-2.100000000E+010.0000000000E+00+
*       3.5000000000E+00               0
GRID*               6066               0-2.150000000E+010.0000000000E+00+
*       3.5000000000E+00               0
GRID*               6067               0-2.200000000E+010.0000000000E+00+
*       3.5000000000E+00               0
GRID*               6068               0-2.225000000E+010.0000000000E+00+
*       3.5000000000E+00               0
GRID*               6069               0-2.175000000E+010.0000000000E+00+
*       3.5000000000E+00               0
GRID*               6070               0-2.125000000E+010.0000000000E+00+
*       3.5000000000E+00               0
GRID*               6071               0-2.075000000E+010.0000000000E+00+
*       3.5000000000E+00               0
GRID*               6072               0-2.025000000E+010.0000000000E+00+
*       3.5000000000E+00               0
GRID*               6073               0-1.975000000E+010.0000000000E+00+
*       3.5000000000E+00               0
GRID*               6074               0-1.925000000E+010.0000000000E+00+
*       3.5000000000E+00               0
GRID*               6075               0-1.875000000E+010.0000000000E+00+
*       3.5000000000E+00               0
GRID*               6076               0-1.825000000E+010.0000000000E+00+
*       3.5000000000E+00               0
GRID*               6077               0-1.775000000E+010.0000000000E+00+
*       3.5000000000E+00               0
GRID*               6078               0-1.725000000E+010.0000000000E+00+
*       3.5000000000E+00               0
GRID*               6079               0-1.675000000E+010.0000000000E+00+
*       3.5000000000E+00               0
GRID*               6080               0-1.625000000E+010.0000000000E+00+
*       3.5000000000E+00               0
GRID*               6081               0-1.575000000E+010.0000000000E+00+
*       3.5000000000E+00               0
GRID*               6082               0-1.525000000E+010.0000000000E+00+
*       3.5000000000E+00               0
GRID*               6083               0-1.475000000E+010.0000000000E+00+
*       3.5000000000E+00               0
GRID*               6084               0-1.425000000E+010.0000000000E+00+
*       3.5000000000E+00               0
GRID*               6085               0-1.375000000E+010.0000000000E+00+
*       3.5000000000E+00               0
GRID*               6086               0-1.325000000E+010.0000000000E+00+
*       3.5000000000E+00               0
GRID*               6087               0-1.275000000E+010.0000000000E+00+
*       3.5000000000E+00               0
GRID*               6088               0-1.225000000E+010.0000000000E+00+
*       3.5000000000E+00               0
GRID*               6089               0-1.175000000E+010.0000000000E+00+
*       3.5000000000E+00               0
GRID*               6090               0-1.125000000E+010.0000000000E+00+
*       3.5000000000E+00               0
GRID*               6091               0-1.075000000E+010.0000000000E+00+
*       3.5000000000E+00               0
GRID*               6092               0-1.025000000E+010.0000000000E+00+
*       3.5000000000E+00               0
GRID*               6093               0-9.750000000E+000.0000000000E+00+
*       3.5000000000E+00               0
GRID*               6094               0-9.250000000E+000.0000000000E+00+
*       3.5000000000E+00               0
GRID*               6095               0-8.750000000E+000.0000000000E+00+
*       3.5000000000E+00               0
GRID*               6096               0-8.250000000E+000.0000000000E+00+
*       3.5000000000E+00               0
GRID*               6097               0-7.750000000E+000.0000000000E+00+
*       3.5000000000E+00               0
GRID*               6098               0-7.250000000E+000.0000000000E+00+
*       3.5000000000E+00               0
GRID*               6099               0-6.750000000E+000.0000000000E+00+
*       3.5000000000E+00               0
GRID*               6100               0-6.250000000E+000.0000000000E+00+
*       3.5000000000E+00               0
GRID*               6101               0-5.750000000E+000.0000000000E+00+
*       3.5000000000E+00               0
GRID*               6102               0-5.250000000E+000.0000000000E+00+
*       3.5000000000E+00               0
GRID*               6103               0-4.750000000E+000.0000000000E+00+
*       3.5000000000E+00               0
GRID*               6104               0-4.250000000E+000.0000000000E+00+
*       3.5000000000E+00               0
GRID*               6105               0-3.750000000E+000.0000000000E+00+
*       3.5000000000E+00               0
GRID*               6106               0-3.250000000E+000.0000000000E+00+
*       3.5000000000E+00               0
GRID*               6107               0-2.750000000E+000.0000000000E+00+
*       3.5000000000E+00               0
GRID*               6108               0-2.250000000E+000.0000000000E+00+
*       3.5000000000E+00               0
GRID*               6109               0-1.750000000E+000.0000000000E+00+
*       3.5000000000E+00               0
GRID*               6110               0-1.250000000E+000.0000000000E+00+
*       3.5000000000E+00               0
GRID*               6111               0-7.500000000E-010.0000000000E+00+
*       3.5000000000E+00               0
GRID*               6112               0-2.500000000E-010.0000000000E+00+
*       3.5000000000E+00               0
GRID*               6113               02.5000000000E-010.0000000000E+00+
*       3.5000000000E+00               0
GRID*               6114               07.5000000000E-010.0000000000E+00+
*       3.5000000000E+00               0
GRID*               6115               01.2500000000E+000.0000000000E+00+
*       3.5000000000E+00               0
GRID*               6116               01.7500000000E+000.0000000000E+00+
*       3.5000000000E+00               0
GRID*               6117               02.2500000000E+000.0000000000E+00+
*       3.5000000000E+00               0
GRID*               6118               02.7500000000E+000.0000000000E+00+
*       3.5000000000E+00               0
GRID*               6119               03.2500000000E+000.0000000000E+00+
*       3.5000000000E+00               0
GRID*               6120               03.7500000000E+000.0000000000E+00+
*       3.5000000000E+00               0
GRID*               6121               04.2500000000E+000.0000000000E+00+
*       3.5000000000E+00               0
GRID*               6122               04.7500000000E+000.0000000000E+00+
*       3.5000000000E+00               0
GRID*               6123               05.2500000000E+000.0000000000E+00+
*       3.5000000000E+00               0
GRID*               6124               05.7500000000E+000.0000000000E+00+
*       3.5000000000E+00               0
GRID*               6125               06.2500000000E+000.0000000000E+00+
*       3.5000000000E+00               0
GRID*               6126               06.7500000000E+000.0000000000E+00+
*       3.5000000000E+00               0
GRID*               6127               07.2500000000E+000.0000000000E+00+
*       3.5000000000E+00               0
GRID*               6128               07.7500000000E+000.0000000000E+00+
*       3.5000000000E+00               0
GRID*               6129               08.2500000000E+000.0000000000E+00+
*       3.5000000000E+00               0
GRID*               6130               08.7500000000E+000.0000000000E+00+
*       3.5000000000E+00               0
GRID*               6131               09.2500000000E+000.0000000000E+00+
*       3.5000000000E+00               0
GRID*               6132               09.7500000000E+000.0000000000E+00+
*       3.5000000000E+00               0
GRID*               6133               01.0250000000E+010.0000000000E+00+
*       3.5000000000E+00               0
GRID*               6134               01.0750000000E+010.0000000000E+00+
*       3.5000000000E+00               0
GRID*               6135               01.1250000000E+010.0000000000E+00+
*       3.5000000000E+00               0
GRID*               6136               01.1750000000E+010.0000000000E+00+
*       3.5000000000E+00               0
GRID*               6137               01.2250000000E+010.0000000000E+00+
*       3.5000000000E+00               0
GRID*               6138               01.2750000000E+010.0000000000E+00+
*       3.5000000000E+00               0
GRID*               6139               01.3250000000E+010.0000000000E+00+
*       3.5000000000E+00               0
GRID*               6140               01.3750000000E+010.0000000000E+00+
*       3.5000000000E+00               0
GRID*               6141               01.4250000000E+010.0000000000E+00+
*       3.5000000000E+00               0
GRID*               6142               01.4750000000E+010.0000000000E+00+
*       3.5000000000E+00               0
GRID*               6143               01.5250000000E+010.0000000000E+00+
*       3.5000000000E+00               0
GRID*               6144               01.5750000000E+010.0000000000E+00+
*       3.5000000000E+00               0
GRID*               6145               01.6250000000E+010.0000000000E+00+
*       3.5000000000E+00               0
GRID*               6146               01.6750000000E+010.0000000000E+00+
*       3.5000000000E+00               0
GRID*               6147               01.7250000000E+010.0000000000E+00+
*       3.5000000000E+00               0
GRID*               6148               01.7750000000E+010.0000000000E+00+
*       3.5000000000E+00               0
GRID*               6149               01.8250000000E+010.0000000000E+00+
*       3.5000000000E+00               0
GRID*               6150               01.8750000000E+010.0000000000E+00+
*       3.5000000000E+00               0
GRID*               6151               01.9250000000E+010.0000000000E+00+
*       3.5000000000E+00               0
GRID*               6152               01.9750000000E+010.0000000000E+00+
*       3.5000000000E+00               0
GRID*               6153               02.0250000000E+010.0000000000E+00+
*       3.5000000000E+00               0
GRID*               6154               02.0750000000E+010.0000000000E+00+
*       3.5000000000E+00               0
GRID*               6155               02.1250000000E+010.0000000000E+00+
*       3.5000000000E+00               0
GRID*               6156               02.1750000000E+010.0000000000E+00+
*       3.5000000000E+00               0
GRID*               6157               02.2250000000E+010.0000000000E+00+
*       3.5000000000E+00               0
GRID*               6158               0-3.200000000E+010.0000000000E+00+
*       6.0000000000E+00               0
GRID*               6159               0-3.150000000E+010.0000000000E+00+
*       6.0000000000E+00               0
GRID*               6160               0-3.100000000E+010.0000000000E+00+
*       6.0000000000E+00               0
GRID*               6161               0-3.050000000E+010.0000000000E+00+
*       6.0000000000E+00               0
GRID*               6162               0-3.000000000E+010.0000000000E+00+
*       6.0000000000E+00               0
GRID*               6163               0-2.950000000E+010.0000000000E+00+
*       6.0000000000E+00               0
GRID*               6164               0-2.900000000E+010.0000000000E+00+
*       6.0000000000E+00               0
GRID*               6165               0-2.850000000E+010.0000000000E+00+
*       6.0000000000E+00               0
GRID*               6166               0-2.800000000E+010.0000000000E+00+
*       6.0000000000E+00               0
GRID*               6167               0-2.750000000E+010.0000000000E+00+
*       6.0000000000E+00               0
GRID*               6168               0-2.700000000E+010.0000000000E+00+
*       6.0000000000E+00               0
GRID*               6169               0-2.650000000E+010.0000000000E+00+
*       6.0000000000E+00               0
GRID*               6170               0-2.600000000E+010.0000000000E+00+
*       6.0000000000E+00               0
GRID*               6171               0-2.550000000E+010.0000000000E+00+
*       6.0000000000E+00               0
GRID*               6172               0-2.500000000E+010.0000000000E+00+
*       6.0000000000E+00               0
GRID*               6173               0-2.450000000E+010.0000000000E+00+
*       6.0000000000E+00               0
GRID*               6174               0-2.400000000E+010.0000000000E+00+
*       6.0000000000E+00               0
GRID*               6175               0-2.350000000E+010.0000000000E+00+
*       6.0000000000E+00               0
GRID*               6176               0-2.300000000E+010.0000000000E+00+
*       6.0000000000E+00               0
GRID*               6177               0-2.250000000E+010.0000000000E+00+
*       6.0000000000E+00               0
GRID*               6178               0-2.200000000E+010.0000000000E+00+
*       6.0000000000E+00               0
GRID*               6179               0-2.150000000E+010.0000000000E+00+
*       6.0000000000E+00               0
GRID*               6180               0-2.100000000E+010.0000000000E+00+
*       6.0000000000E+00               0
GRID*               6181               0-2.050000000E+010.0000000000E+00+
*       6.0000000000E+00               0
GRID*               6182               0-2.000000000E+010.0000000000E+00+
*       6.0000000000E+00               0
GRID*               6183               0-1.950000000E+010.0000000000E+00+
*       6.0000000000E+00               0
GRID*               6184               0-1.900000000E+010.0000000000E+00+
*       6.0000000000E+00               0
GRID*               6185               0-1.850000000E+010.0000000000E+00+
*       6.0000000000E+00               0
GRID*               6186               0-1.800000000E+010.0000000000E+00+
*       6.0000000000E+00               0
GRID*               6187               0-1.750000000E+010.0000000000E+00+
*       6.0000000000E+00               0
GRID*               6188               0-1.700000000E+010.0000000000E+00+
*       6.0000000000E+00               0
GRID*               6189               0-1.650000000E+010.0000000000E+00+
*       6.0000000000E+00               0
GRID*               6190               0-1.600000000E+010.0000000000E+00+
*       6.0000000000E+00               0
GRID*               6191               0-1.550000000E+010.0000000000E+00+
*       6.0000000000E+00               0
GRID*               6192               0-1.500000000E+010.0000000000E+00+
*       6.0000000000E+00               0
GRID*               6193               0-1.450000000E+010.0000000000E+00+
*       6.0000000000E+00               0
GRID*               6194               0-1.400000000E+010.0000000000E+00+
*       6.0000000000E+00               0
GRID*               6195               0-1.350000000E+010.0000000000E+00+
*       6.0000000000E+00               0
GRID*               6196               0-1.300000000E+010.0000000000E+00+
*       6.0000000000E+00               0
GRID*               6197               0-1.250000000E+010.0000000000E+00+
*       6.0000000000E+00               0
GRID*               6198               0-1.200000000E+010.0000000000E+00+
*       6.0000000000E+00               0
GRID*               6199               0-1.150000000E+010.0000000000E+00+
*       6.0000000000E+00               0
GRID*               6200               0-1.100000000E+010.0000000000E+00+
*       6.0000000000E+00               0
GRID*               6201               0-1.050000000E+010.0000000000E+00+
*       6.0000000000E+00               0
GRID*               6202               0-1.000000000E+010.0000000000E+00+
*       6.0000000000E+00               0
GRID*               6203               0-9.500000000E+000.0000000000E+00+
*       6.0000000000E+00               0
GRID*               6204               0-9.000000000E+000.0000000000E+00+
*       6.0000000000E+00               0
GRID*               6205               0-8.500000000E+000.0000000000E+00+
*       6.0000000000E+00               0
GRID*               6206               0-8.000000000E+000.0000000000E+00+
*       6.0000000000E+00               0
GRID*               6207               0-7.500000000E+000.0000000000E+00+
*       6.0000000000E+00               0
GRID*               6208               0-7.000000000E+000.0000000000E+00+
*       6.0000000000E+00               0
GRID*               6209               0-6.500000000E+000.0000000000E+00+
*       6.0000000000E+00               0
GRID*               6210               0-6.000000000E+000.0000000000E+00+
*       6.0000000000E+00               0
GRID*               6211               0-5.500000000E+000.0000000000E+00+
*       6.0000000000E+00               0
GRID*               6212               0-5.000000000E+000.0000000000E+00+
*       6.0000000000E+00               0
GRID*               6213               0-4.500000000E+000.0000000000E+00+
*       6.0000000000E+00               0
GRID*               6214               0-4.000000000E+000.0000000000E+00+
*       6.0000000000E+00               0
GRID*               6215               0-3.500000000E+000.0000000000E+00+
*       6.0000000000E+00               0
GRID*               6216               0-3.000000000E+000.0000000000E+00+
*       6.0000000000E+00               0
GRID*               6217               0-2.500000000E+000.0000000000E+00+
*       6.0000000000E+00               0
GRID*               6218               0-2.000000000E+000.0000000000E+00+
*       6.0000000000E+00               0
GRID*               6219               0-1.500000000E+000.0000000000E+00+
*       6.0000000000E+00               0
GRID*               6220               0-1.000000000E+000.0000000000E+00+
*       6.0000000000E+00               0
GRID*               6221               0-5.000000000E-010.0000000000E+00+
*       6.0000000000E+00               0
GRID*               6222               00.0000000000E+000.0000000000E+00+
*       6.0000000000E+00               0
GRID*               6223               05.0000000000E-010.0000000000E+00+
*       6.0000000000E+00               0
GRID*               6224               01.0000000000E+000.0000000000E+00+
*       6.0000000000E+00               0
GRID*               6225               01.5000000000E+000.0000000000E+00+
*       6.0000000000E+00               0
GRID*               6226               02.0000000000E+000.0000000000E+00+
*       6.0000000000E+00               0
GRID*               6227               02.5000000000E+000.0000000000E+00+
*       6.0000000000E+00               0
GRID*               6228               03.0000000000E+000.0000000000E+00+
*       6.0000000000E+00               0
GRID*               6229               03.5000000000E+000.0000000000E+00+
*       6.0000000000E+00               0
GRID*               6230               04.0000000000E+000.0000000000E+00+
*       6.0000000000E+00               0
GRID*               6231               04.5000000000E+000.0000000000E+00+
*       6.0000000000E+00               0
GRID*               6232               05.0000000000E+000.0000000000E+00+
*       6.0000000000E+00               0
GRID*               6233               05.5000000000E+000.0000000000E+00+
*       6.0000000000E+00               0
GRID*               6234               06.0000000000E+000.0000000000E+00+
*       6.0000000000E+00               0
GRID*               6235               06.5000000000E+000.0000000000E+00+
*       6.0000000000E+00               0
GRID*               6236               07.0000000000E+000.0000000000E+00+
*       6.0000000000E+00               0
GRID*               6237               07.5000000000E+000.0000000000E+00+
*       6.0000000000E+00               0
GRID*               6238               08.0000000000E+000.0000000000E+00+
*       6.0000000000E+00               0
GRID*               6239               08.5000000000E+000.0000000000E+00+
*       6.0000000000E+00               0
GRID*               6240               09.0000000000E+000.0000000000E+00+
*       6.0000000000E+00               0
GRID*               6241               09.5000000000E+000.0000000000E+00+
*       6.0000000000E+00               0
GRID*               6242               01.0000000000E+010.0000000000E+00+
*       6.0000000000E+00               0
GRID*               6243               01.0500000000E+010.0000000000E+00+
*       6.0000000000E+00               0
GRID*               6244               01.1000000000E+010.0000000000E+00+
*       6.0000000000E+00               0
GRID*               6245               01.1500000000E+010.0000000000E+00+
*       6.0000000000E+00               0
GRID*               6246               01.2000000000E+010.0000000000E+00+
*       6.0000000000E+00               0
GRID*               6247               01.2500000000E+010.0000000000E+00+
*       6.0000000000E+00               0
GRID*               6248               01.3000000000E+010.0000000000E+00+
*       6.0000000000E+00               0
GRID*               6249               01.3500000000E+010.0000000000E+00+
*       6.0000000000E+00               0
GRID*               6250               01.4000000000E+010.0000000000E+00+
*       6.0000000000E+00               0
GRID*               6251               01.4500000000E+010.0000000000E+00+
*       6.0000000000E+00               0
GRID*               6252               01.5000000000E+010.0000000000E+00+
*       6.0000000000E+00               0
GRID*               6253               01.5500000000E+010.0000000000E+00+
*       6.0000000000E+00               0
GRID*               6254               01.6000000000E+010.0000000000E+00+
*       6.0000000000E+00               0
GRID*               6255               01.6500000000E+010.0000000000E+00+
*       6.0000000000E+00               0
GRID*               6256               01.7000000000E+010.0000000000E+00+
*       6.0000000000E+00               0
GRID*               6257               01.7500000000E+010.0000000000E+00+
*       6.0000000000E+00               0
GRID*               6258               01.8000000000E+010.0000000000E+00+
*       6.0000000000E+00               0
GRID*               6259               01.8500000000E+010.0000000000E+00+
*       6.0000000000E+00               0
GRID*               6260               01.9000000000E+010.0000000000E+00+
*       6.0000000000E+00               0
GRID*               6261               01.9500000000E+010.0000000000E+00+
*       6.0000000000E+00               0
GRID*               6262               02.0000000000E+010.0000000000E+00+
*       6.0000000000E+00               0
GRID*               6263               02.0500000000E+010.0000000000E+00+
*       6.0000000000E+00               0
GRID*               6264               02.1000000000E+010.0000000000E+00+
*       6.0000000000E+00               0
GRID*               6265               02.1500000000E+010.0000000000E+00+
*       6.0000000000E+00               0
GRID*               6266               02.2000000000E+010.0000000000E+00+
*       6.0000000000E+00               0
GRID*               6267               02.2500000000E+010.0000000000E+00+
*       6.0000000000E+00               0
GRID*               6268               02.3000000000E+010.0000000000E+00+
*       6.0000000000E+00               0
GRID*               6269               02.3500000000E+010.0000000000E+00+
*       6.0000000000E+00               0
GRID*               6270               02.4000000000E+010.0000000000E+00+
*       6.0000000000E+00               0
GRID*               6271               02.4500000000E+010.0000000000E+00+
*       6.0000000000E+00               0
GRID*               6272               02.5000000000E+010.0000000000E+00+
*       6.0000000000E+00               0
GRID*               6273               02.5500000000E+010.0000000000E+00+
*       6.0000000000E+00               0
GRID*               6274               02.6000000000E+010.0000000000E+00+
*       6.0000000000E+00               0
GRID*               6275               02.6500000000E+010.0000000000E+00+
*       6.0000000000E+00               0
GRID*               6276               02.7000000000E+010.0000000000E+00+
*       6.0000000000E+00               0
GRID*               6277               02.7500000000E+010.0000000000E+00+
*       6.0000000000E+00               0
GRID*               6278               02.8000000000E+010.0000000000E+00+
*       6.0000000000E+00               0
GRID*               6279               02.8500000000E+010.0000000000E+00+
*       6.0000000000E+00               0
GRID*               6280               02.9000000000E+010.0000000000E+00+
*       6.0000000000E+00               0
GRID*               6281               02.9500000000E+010.0000000000E+00+
*       6.0000000000E+00               0
GRID*               6282               03.0000000000E+010.0000000000E+00+
*       6.0000000000E+00               0
GRID*               6283               03.0500000000E+010.0000000000E+00+
*       6.0000000000E+00               0
GRID*               6284               03.1000000000E+010.0000000000E+00+
*       6.0000000000E+00               0
GRID*               6285               03.1500000000E+010.0000000000E+00+
*       6.0000000000E+00               0
GRID*               6286               03.2000000000E+010.0000000000E+00+
*       6.0000000000E+00               0
GRID*               6287               03.2250000000E+010.0000000000E+00+
*       6.0000000000E+00               0
GRID*               6288               03.1750000000E+010.0000000000E+00+
*       6.0000000000E+00               0
GRID*               6289               03.1250000000E+010.0000000000E+00+
*       6.0000000000E+00               0
GRID*               6290               03.0750000000E+010.0000000000E+00+
*       6.0000000000E+00               0
GRID*               6291               03.0250000000E+010.0000000000E+00+
*       6.0000000000E+00               0
GRID*               6292               02.9750000000E+010.0000000000E+00+
*       6.0000000000E+00               0
GRID*               6293               02.9250000000E+010.0000000000E+00+
*       6.0000000000E+00               0
GRID*               6294               02.8750000000E+010.0000000000E+00+
*       6.0000000000E+00               0
GRID*               6295               02.8250000000E+010.0000000000E+00+
*       6.0000000000E+00               0
GRID*               6296               02.7750000000E+010.0000000000E+00+
*       6.0000000000E+00               0
GRID*               6297               02.7250000000E+010.0000000000E+00+
*       6.0000000000E+00               0
GRID*               6298               02.6750000000E+010.0000000000E+00+
*       6.0000000000E+00               0
GRID*               6299               02.6250000000E+010.0000000000E+00+
*       6.0000000000E+00               0
GRID*               6300               02.5750000000E+010.0000000000E+00+
*       6.0000000000E+00               0
GRID*               6301               02.5250000000E+010.0000000000E+00+
*       6.0000000000E+00               0
GRID*               6302               02.4750000000E+010.0000000000E+00+
*       6.0000000000E+00               0
GRID*               6303               02.4250000000E+010.0000000000E+00+
*       6.0000000000E+00               0
GRID*               6304               02.3750000000E+010.0000000000E+00+
*       6.0000000000E+00               0
GRID*               6305               02.3250000000E+010.0000000000E+00+
*       6.0000000000E+00               0
GRID*               6306               02.2750000000E+010.0000000000E+00+
*       6.0000000000E+00               0
GRID*               6307               02.2250000000E+010.0000000000E+00+
*       6.0000000000E+00               0
GRID*               6308               02.1750000000E+010.0000000000E+00+
*       6.0000000000E+00               0
GRID*               6309               02.1250000000E+010.0000000000E+00+
*       6.0000000000E+00               0
GRID*               6310               02.0750000000E+010.0000000000E+00+
*       6.0000000000E+00               0
GRID*               6311               02.0250000000E+010.0000000000E+00+
*       6.0000000000E+00               0
GRID*               6312               01.9750000000E+010.0000000000E+00+
*       6.0000000000E+00               0
GRID*               6313               01.9250000000E+010.0000000000E+00+
*       6.0000000000E+00               0
GRID*               6314               01.8750000000E+010.0000000000E+00+
*       6.0000000000E+00               0
GRID*               6315               01.8250000000E+010.0000000000E+00+
*       6.0000000000E+00               0
GRID*               6316               01.7750000000E+010.0000000000E+00+
*       6.0000000000E+00               0
GRID*               6317               01.7250000000E+010.0000000000E+00+
*       6.0000000000E+00               0
GRID*               6318               01.6750000000E+010.0000000000E+00+
*       6.0000000000E+00               0
GRID*               6319               01.6250000000E+010.0000000000E+00+
*       6.0000000000E+00               0
GRID*               6320               01.5750000000E+010.0000000000E+00+
*       6.0000000000E+00               0
GRID*               6321               01.5250000000E+010.0000000000E+00+
*       6.0000000000E+00               0
GRID*               6322               01.4750000000E+010.0000000000E+00+
*       6.0000000000E+00               0
GRID*               6323               01.4250000000E+010.0000000000E+00+
*       6.0000000000E+00               0
GRID*               6324               01.3750000000E+010.0000000000E+00+
*       6.0000000000E+00               0
GRID*               6325               01.3250000000E+010.0000000000E+00+
*       6.0000000000E+00               0
GRID*               6326               01.2750000000E+010.0000000000E+00+
*       6.0000000000E+00               0
GRID*               6327               01.2250000000E+010.0000000000E+00+
*       6.0000000000E+00               0
GRID*               6328               01.1750000000E+010.0000000000E+00+
*       6.0000000000E+00               0
GRID*               6329               01.1250000000E+010.0000000000E+00+
*       6.0000000000E+00               0
GRID*               6330               01.0750000000E+010.0000000000E+00+
*       6.0000000000E+00               0
GRID*               6331               01.0250000000E+010.0000000000E+00+
*       6.0000000000E+00               0
GRID*               6332               09.7500000000E+000.0000000000E+00+
*       6.0000000000E+00               0
GRID*               6333               09.2500000000E+000.0000000000E+00+
*       6.0000000000E+00               0
GRID*               6334               08.7500000000E+000.0000000000E+00+
*       6.0000000000E+00               0
GRID*               6335               08.2500000000E+000.0000000000E+00+
*       6.0000000000E+00               0
GRID*               6336               07.7500000000E+000.0000000000E+00+
*       6.0000000000E+00               0
GRID*               6337               07.2500000000E+000.0000000000E+00+
*       6.0000000000E+00               0
GRID*               6338               06.7500000000E+000.0000000000E+00+
*       6.0000000000E+00               0
GRID*               6339               06.2500000000E+000.0000000000E+00+
*       6.0000000000E+00               0
GRID*               6340               05.7500000000E+000.0000000000E+00+
*       6.0000000000E+00               0
GRID*               6341               05.2500000000E+000.0000000000E+00+
*       6.0000000000E+00               0
GRID*               6342               04.7500000000E+000.0000000000E+00+
*       6.0000000000E+00               0
GRID*               6343               04.2500000000E+000.0000000000E+00+
*       6.0000000000E+00               0
GRID*               6344               03.7500000000E+000.0000000000E+00+
*       6.0000000000E+00               0
GRID*               6345               03.2500000000E+000.0000000000E+00+
*       6.0000000000E+00               0
GRID*               6346               02.7500000000E+000.0000000000E+00+
*       6.0000000000E+00               0
GRID*               6347               02.2500000000E+000.0000000000E+00+
*       6.0000000000E+00               0
GRID*               6348               01.7500000000E+000.0000000000E+00+
*       6.0000000000E+00               0
GRID*               6349               01.2500000000E+000.0000000000E+00+
*       6.0000000000E+00               0
GRID*               6350               07.5000000000E-010.0000000000E+00+
*       6.0000000000E+00               0
GRID*               6351               02.5000000000E-010.0000000000E+00+
*       6.0000000000E+00               0
GRID*               6352               0-2.500000000E-010.0000000000E+00+
*       6.0000000000E+00               0
GRID*               6353               0-7.500000000E-010.0000000000E+00+
*       6.0000000000E+00               0
GRID*               6354               0-1.250000000E+000.0000000000E+00+
*       6.0000000000E+00               0
GRID*               6355               0-1.750000000E+000.0000000000E+00+
*       6.0000000000E+00               0
GRID*               6356               0-2.250000000E+000.0000000000E+00+
*       6.0000000000E+00               0
GRID*               6357               0-2.750000000E+000.0000000000E+00+
*       6.0000000000E+00               0
GRID*               6358               0-3.250000000E+000.0000000000E+00+
*       6.0000000000E+00               0
GRID*               6359               0-3.750000000E+000.0000000000E+00+
*       6.0000000000E+00               0
GRID*               6360               0-4.250000000E+000.0000000000E+00+
*       6.0000000000E+00               0
GRID*               6361               0-4.750000000E+000.0000000000E+00+
*       6.0000000000E+00               0
GRID*               6362               0-5.250000000E+000.0000000000E+00+
*       6.0000000000E+00               0
GRID*               6363               0-5.750000000E+000.0000000000E+00+
*       6.0000000000E+00               0
GRID*               6364               0-6.250000000E+000.0000000000E+00+
*       6.0000000000E+00               0
GRID*               6365               0-6.750000000E+000.0000000000E+00+
*       6.0000000000E+00               0
GRID*               6366               0-7.250000000E+000.0000000000E+00+
*       6.0000000000E+00               0
GRID*               6367               0-7.750000000E+000.0000000000E+00+
*       6.0000000000E+00               0
GRID*               6368               0-8.250000000E+000.0000000000E+00+
*       6.0000000000E+00               0
GRID*               6369               0-8.750000000E+000.0000000000E+00+
*       6.0000000000E+00               0
GRID*               6370               0-9.250000000E+000.0000000000E+00+
*       6.0000000000E+00               0
GRID*               6371               0-9.750000000E+000.0000000000E+00+
*       6.0000000000E+00               0
GRID*               6372               0-1.025000000E+010.0000000000E+00+
*       6.0000000000E+00               0
GRID*               6373               0-1.075000000E+010.0000000000E+00+
*       6.0000000000E+00               0
GRID*               6374               0-1.125000000E+010.0000000000E+00+
*       6.0000000000E+00               0
GRID*               6375               0-1.175000000E+010.0000000000E+00+
*       6.0000000000E+00               0
GRID*               6376               0-1.225000000E+010.0000000000E+00+
*       6.0000000000E+00               0
GRID*               6377               0-1.275000000E+010.0000000000E+00+
*       6.0000000000E+00               0
GRID*               6378               0-1.325000000E+010.0000000000E+00+
*       6.0000000000E+00               0
GRID*               6379               0-1.375000000E+010.0000000000E+00+
*       6.0000000000E+00               0
GRID*               6380               0-1.425000000E+010.0000000000E+00+
*       6.0000000000E+00               0
GRID*               6381               0-1.475000000E+010.0000000000E+00+
*       6.0000000000E+00               0
GRID*               6382               0-1.525000000E+010.0000000000E+00+
*       6.0000000000E+00               0
GRID*               6383               0-1.575000000E+010.0000000000E+00+
*       6.0000000000E+00               0
GRID*               6384               0-1.625000000E+010.0000000000E+00+
*       6.0000000000E+00               0
GRID*               6385               0-1.675000000E+010.0000000000E+00+
*       6.0000000000E+00               0
GRID*               6386               0-1.725000000E+010.0000000000E+00+
*       6.0000000000E+00               0
GRID*               6387               0-1.775000000E+010.0000000000E+00+
*       6.0000000000E+00               0
GRID*               6388               0-1.825000000E+010.0000000000E+00+
*       6.0000000000E+00               0
GRID*               6389               0-1.875000000E+010.0000000000E+00+
*       6.0000000000E+00               0
GRID*               6390               0-1.925000000E+010.0000000000E+00+
*       6.0000000000E+00               0
GRID*               6391               0-1.975000000E+010.0000000000E+00+
*       6.0000000000E+00               0
GRID*               6392               0-2.025000000E+010.0000000000E+00+
*       6.0000000000E+00               0
GRID*               6393               0-2.075000000E+010.0000000000E+00+
*       6.0000000000E+00               0
GRID*               6394               0-2.125000000E+010.0000000000E+00+
*       6.0000000000E+00               0
GRID*               6395               0-2.175000000E+010.0000000000E+00+
*       6.0000000000E+00               0
GRID*               6396               0-2.225000000E+010.0000000000E+00+
*       6.0000000000E+00               0
GRID*               6397               0-2.275000000E+010.0000000000E+00+
*       6.0000000000E+00               0
GRID*               6398               0-2.325000000E+010.0000000000E+00+
*       6.0000000000E+00               0
GRID*               6399               0-2.375000000E+010.0000000000E+00+
*       6.0000000000E+00               0
GRID*               6400               0-2.425000000E+010.0000000000E+00+
*       6.0000000000E+00               0
GRID*               6401               0-2.475000000E+010.0000000000E+00+
*       6.0000000000E+00               0
GRID*               6402               0-2.525000000E+010.0000000000E+00+
*       6.0000000000E+00               0
GRID*               6403               0-2.575000000E+010.0000000000E+00+
*       6.0000000000E+00               0
GRID*               6404               0-2.625000000E+010.0000000000E+00+
*       6.0000000000E+00               0
GRID*               6405               0-2.675000000E+010.0000000000E+00+
*       6.0000000000E+00               0
GRID*               6406               0-2.725000000E+010.0000000000E+00+
*       6.0000000000E+00               0
GRID*               6407               0-2.775000000E+010.0000000000E+00+
*       6.0000000000E+00               0
GRID*               6408               0-2.825000000E+010.0000000000E+00+
*       6.0000000000E+00               0
GRID*               6409               0-2.875000000E+010.0000000000E+00+
*       6.0000000000E+00               0
GRID*               6410               0-2.925000000E+010.0000000000E+00+
*       6.0000000000E+00               0
GRID*               6411               0-2.975000000E+010.0000000000E+00+
*       6.0000000000E+00               0
GRID*               6412               0-3.025000000E+010.0000000000E+00+
*       6.0000000000E+00               0
GRID*               6413               0-3.075000000E+010.0000000000E+00+
*       6.0000000000E+00               0
GRID*               6414               0-3.125000000E+010.0000000000E+00+
*       6.0000000000E+00               0
GRID*               6415               0-3.175000000E+010.0000000000E+00+
*       6.0000000000E+00               0
GRID*               6416               0-3.225000000E+010.0000000000E+00+
*       6.0000000000E+00               0
GRID*               6417               02.2998101840E+010.0000000000E+00+
*       -3.464374483E+00               0
GRID*               6418               02.3486063913E+010.0000000000E+00+
*       -3.358225395E+00               0
GRID*               6419               02.3953952269E+010.0000000000E+00+
*       -3.183711442E+00               0
GRID*               6420               02.4392242671E+010.0000000000E+00+
*       -2.944387143E+00               0
GRID*               6421               02.4792012309E+010.0000000000E+00+
*       -2.645123222E+00               0
GRID*               6422               02.5145123117E+010.0000000000E+00+
*       -2.292012266E+00               0
GRID*               6423               02.5444386883E+010.0000000000E+00+
*       -1.892242563E+00               0
GRID*               6424               02.5683711889E+010.0000000000E+00+
*       -1.453952569E+00               0
GRID*               6425               02.5858225751E+010.0000000000E+00+
*       -9.860641325E-01               0
GRID*               6426               02.5964373633E+010.0000000000E+00+
*       -4.981017634E-01               0
GRID*               6427               02.6000000000E+010.0000000000E+00+
*       0.0000000000E+00               0
GRID*               6428               02.5964373633E+010.0000000000E+00+
*       4.9810176337E-01               0
GRID*               6429               02.5858225751E+010.0000000000E+00+
*       9.8606413248E-01               0
GRID*               6430               02.5683711889E+010.0000000000E+00+
*       1.4539525694E+00               0
GRID*               6431               02.5444386883E+010.0000000000E+00+
*       1.8922425634E+00               0
GRID*               6432               02.5145123117E+010.0000000000E+00+
*       2.2920122662E+00               0
GRID*               6433               02.4792012309E+010.0000000000E+00+
*       2.6451232216E+00               0
GRID*               6434               02.4392242671E+010.0000000000E+00+
*       2.9443871426E+00               0
GRID*               6435               02.3953952269E+010.0000000000E+00+
*       3.1837114419E+00               0
GRID*               6436               02.3486063913E+010.0000000000E+00+
*       3.3582253945E+00               0
GRID*               6437               02.2998101840E+010.0000000000E+00+
*       3.4643744825E+00               0
GRID*               6438               02.2749687172E+010.0000000000E+00+
*       3.4910796255E+00               0
GRID*               6439               02.3243978391E+010.0000000000E+00+
*       3.4200136002E+00               0
GRID*               6440               02.3723124548E+010.0000000000E+00+
*       3.2793238991E+00               0
GRID*               6441               02.4177371113E+010.0000000000E+00+
*       3.0718759136E+00               0
GRID*               6442               02.4597471658E+010.0000000000E+00+
*       2.8018941484E+00               0
GRID*               6443               02.4974873259E+010.0000000000E+00+
*       2.4748732954E+00               0
GRID*               6444               02.5301894309E+010.0000000000E+00+
*       2.0974718359E+00               0
GRID*               6445               02.5571876187E+010.0000000000E+00+
*       1.6773713008E+00               0
GRID*               6446               02.5779323909E+010.0000000000E+00+
*       1.2231246516E+00               0
GRID*               6447               02.5920012967E+010.0000000000E+00+
*       7.4397837170E-01               0
GRID*               6448               02.5991081842E+010.0000000000E+00+
*       2.4968711460E-01               0
GRID*               6449               02.5991081842E+010.0000000000E+00+
*       -2.496871146E-01               0
GRID*               6450               02.5920012967E+010.0000000000E+00+
*       -7.439783717E-01               0
GRID*               6451               02.5779323909E+010.0000000000E+00+
*       -1.223124652E+00               0
GRID*               6452               02.5571876187E+010.0000000000E+00+
*       -1.677371301E+00               0
GRID*               6453               02.5301894309E+010.0000000000E+00+
*       -2.097471836E+00               0
GRID*               6454               02.4974873259E+010.0000000000E+00+
*       -2.474873295E+00               0
GRID*               6455               02.4597471658E+010.0000000000E+00+
*       -2.801894148E+00               0
GRID*               6456               02.4177371113E+010.0000000000E+00+
*       -3.071875914E+00               0
GRID*               6457               02.3723124548E+010.0000000000E+00+
*       -3.279323899E+00               0
GRID*               6458               02.3243978391E+010.0000000000E+00+
*       -3.420013600E+00               0
GRID*               6459               02.2749687172E+010.0000000000E+00+
*       -3.491079626E+00               0
GRID*               6460               03.2059967164E+010.0000000000E+00+
*       -3.975722312E+00               1
GRID*               6461               03.1625275754E+010.0000000000E+00+
*       -3.903184983E+00               1
GRID*               6462               03.1201202189E+010.0000000000E+00+
*       -3.783268764E+00               1
GRID*               6463               03.0792894236E+010.0000000000E+00+
*       -3.617428719E+00               1
GRID*               6464               03.0405308605E+010.0000000000E+00+
*       -3.407677243E+00               1
GRID*               6465               03.0043149602E+010.0000000000E+00+
*       -3.156561477E+00               1
GRID*               6466               02.9710812628E+010.0000000000E+00+
*       -2.867130230E+00               1
GRID*               6467               02.9412333923E+010.0000000000E+00+
*       -2.542894571E+00               1
GRID*               6468               02.9151334651E+010.0000000000E+00+
*       -2.187792219E+00               1
GRID*               6469               02.8930983787E+010.0000000000E+00+
*       -1.806133002E+00               1
GRID*               6470               02.8753955471E+010.0000000000E+00+
*       -1.402549945E+00               1
GRID*               6471               02.8622399393E+010.0000000000E+00+
*       -9.819416801E-01               1
GRID*               6472               02.8537911384E+010.0000000000E+00+
*       -5.494141729E-01               1
GRID*               6473               02.8501519118E+010.0000000000E+00+
*       -1.102173077E-01               1
GRID*               6474               02.8513661521E+010.0000000000E+00+
*       3.3031744961E-01               1
GRID*               6475               02.8574193658E+010.0000000000E+00+
*       7.6684253782E-01               1
GRID*               6476               02.8682381058E+010.0000000000E+00+
*       1.1940588785E+00               1
GRID*               6477               02.8836907561E+010.0000000000E+00+
*       1.6067813409E+00               1
GRID*               6478               02.9035898329E+010.0000000000E+00+
*       2.0000000890E+00               1
GRID*               6479               02.9276940289E+010.0000000000E+00+
*       2.3689405658E+00               1
GRID*               6480               02.9557104880E+010.0000000000E+00+
*       2.7091259755E+00               1
GRID*               6481               02.9872992234E+010.0000000000E+00+
*       3.0164262109E+00               1
GRID*               6482               03.0220767825E+010.0000000000E+00+
*       3.2871113642E+00               1
GRID*               6483               03.0596210739E+010.0000000000E+00+
*       3.5178946403E+00               1
GRID*               6484               03.0994762789E+010.0000000000E+00+
*       3.7059758560E+00               1
GRID*               6485               03.1411586268E+010.0000000000E+00+
*       3.8490719042E+00               1
GRID*               6486               03.1841621733E+010.0000000000E+00+
*       3.9454451695E+00               1
GRID*               6487               03.2279649076E+010.0000000000E+00+
*       3.9939255101E+00               1
GRID*               6488               03.2720351108E+010.0000000000E+00+
*       3.9939255101E+00               1
GRID*               6489               03.3158378433E+010.0000000000E+00+
*       3.9454450080E+00               1
GRID*               6490               03.3588413909E+010.0000000000E+00+
*       3.8490717993E+00               1
GRID*               6491               03.4005237372E+010.0000000000E+00+
*       3.7059757183E+00               1
GRID*               6492               03.4403789439E+010.0000000000E+00+
*       3.5178945147E+00               1
GRID*               6493               03.4779232191E+010.0000000000E+00+
*       3.2871109895E+00               1
GRID*               6494               03.5127007600E+010.0000000000E+00+
*       3.0164256087E+00               1
GRID*               6495               03.5442895406E+010.0000000000E+00+
*       2.7091257765E+00               1
GRID*               6496               03.5723060122E+010.0000000000E+00+
*       2.3689405327E+00               1
GRID*               6497               03.5964100764E+010.0000000000E+00+
*       1.9999991911E+00               1
GRID*               6498               03.6163093838E+010.0000000000E+00+
*       1.6067816759E+00               1
GRID*               6499               03.6317619840E+010.0000000000E+00+
*       1.1940588868E+00               1
GRID*               6500               03.6425806713E+010.0000000000E+00+
*       7.6684252113E-01               1
GRID*               6501               03.6486338486E+010.0000000000E+00+
*       3.3031735782E-01               1
GRID*               6502               03.6498480880E+010.0000000000E+00+
*       -1.102173998E-01               1
GRID*               6503               03.6462088466E+010.0000000000E+00+
*       -5.494142402E-01               1
GRID*               6504               03.6377602419E+010.0000000000E+00+
*       -9.819421753E-01               1
GRID*               6505               03.6246044223E+010.0000000000E+00+
*       -1.402549771E+00               1
GRID*               6506               03.6069017036E+010.0000000000E+00+
*       -1.806133218E+00               1
GRID*               6507               03.5848664886E+010.0000000000E+00+
*       -2.187791818E+00               1
GRID*               6508               03.5587666817E+010.0000000000E+00+
*       -2.542895027E+00               1
GRID*               6509               03.5289186942E+010.0000000000E+00+
*       -2.867129615E+00               1
GRID*               6510               03.4956850186E+010.0000000000E+00+
*       -3.156561103E+00               1
GRID*               6511               03.4594691386E+010.0000000000E+00+
*       -3.407677168E+00               1
GRID*               6512               03.4207105720E+010.0000000000E+00+
*       -3.617428567E+00               1
GRID*               6513               03.3798797827E+010.0000000000E+00+
*       -3.783268759E+00               1
GRID*               6514               03.3374724233E+010.0000000000E+00+
*       -3.903184871E+00               1
GRID*               6515               03.2940032833E+010.0000000000E+00+
*       -3.975722280E+00               1
GRID*               6516               03.2279648984E+010.0000000000E+00+
*       -3.993925505E+00               1
GRID*               6517               03.1841621642E+010.0000000000E+00+
*       -3.945445154E+00               1
GRID*               6518               03.1411586179E+010.0000000000E+00+
*       -3.849071879E+00               1
GRID*               6519               03.0994762704E+010.0000000000E+00+
*       -3.705975821E+00               1
GRID*               6520               03.0596210658E+010.0000000000E+00+
*       -3.517894596E+00               1
GRID*               6521               03.0220767750E+010.0000000000E+00+
*       -3.287111312E+00               1
GRID*               6522               02.9872992164E+010.0000000000E+00+
*       -3.016426150E+00               1
GRID*               6523               02.9557104817E+010.0000000000E+00+
*       -2.709125908E+00               1
GRID*               6524               02.9276940234E+010.0000000000E+00+
*       -2.368940492E+00               1
GRID*               6525               02.9035898283E+010.0000000000E+00+
*       -2.000000009E+00               1
GRID*               6526               02.8836907524E+010.0000000000E+00+
*       -1.606781257E+00               1
GRID*               6527               02.8682381031E+010.0000000000E+00+
*       -1.194058791E+00               1
GRID*               6528               02.8574193641E+010.0000000000E+00+
*       -7.668424474E-01               1
GRID*               6529               02.8513661514E+010.0000000000E+00+
*       -3.303173578E-01               1
GRID*               6530               02.8501519120E+010.0000000000E+00+
*       1.1021739980E-01               1
GRID*               6531               02.8537911397E+010.0000000000E+00+
*       5.4941426410E-01               1
GRID*               6532               02.8622399415E+010.0000000000E+00+
*       9.8194176941E-01               1
GRID*               6533               02.8753955504E+010.0000000000E+00+
*       1.4025500309E+00               1
GRID*               6534               02.8930983828E+010.0000000000E+00+
*       1.8061330841E+00               1
GRID*               6535               02.9151334701E+010.0000000000E+00+
*       2.1877922958E+00               1
GRID*               6536               02.9412333981E+010.0000000000E+00+
*       2.5428946422E+00               1
GRID*               6537               02.9710812694E+010.0000000000E+00+
*       2.8671302944E+00               1
GRID*               6538               03.0043149675E+010.0000000000E+00+
*       3.1565615335E+00               1
GRID*               6539               03.0405308684E+010.0000000000E+00+
*       3.4076772909E+00               1
GRID*               6540               03.0792894319E+010.0000000000E+00+
*       3.6174287580E+00               1
GRID*               6541               03.1201202277E+010.0000000000E+00+
*       3.7832687936E+00               1
GRID*               6542               03.1625275844E+010.0000000000E+00+
*       3.9031850036E+00               1
GRID*               6543               03.2059967255E+010.0000000000E+00+
*       3.9757223220E+00               1
GRID*               6544               03.2500000092E+010.0000000000E+00+
*       4.0000000000E+00               1
GRID*               6545               03.2940032925E+010.0000000000E+00+
*       3.9757222700E+00               1
GRID*               6546               03.3374724323E+010.0000000000E+00+
*       3.9031848512E+00               1
GRID*               6547               03.3798797914E+010.0000000000E+00+
*       3.7832687290E+00               1
GRID*               6548               03.4207105803E+010.0000000000E+00+
*       3.6174285275E+00               1
GRID*               6549               03.4594691464E+010.0000000000E+00+
*       3.4076771197E+00               1
GRID*               6550               03.4956850258E+010.0000000000E+00+
*       3.1565610460E+00               1
GRID*               6551               03.5289187008E+010.0000000000E+00+
*       2.8671295505E+00               1
GRID*               6552               03.5587666875E+010.0000000000E+00+
*       2.5428949563E+00               1
GRID*               6553               03.5848664937E+010.0000000000E+00+
*       2.1877917410E+00               1
GRID*               6554               03.6069017078E+010.0000000000E+00+
*       1.8061331356E+00               1
GRID*               6555               03.6246044255E+010.0000000000E+00+
*       1.4025496843E+00               1
GRID*               6556               03.6377602441E+010.0000000000E+00+
*       9.8194208606E-01               1
GRID*               6557               03.6462088479E+010.0000000000E+00+
*       5.4941414901E-01               1
GRID*               6558               03.6498480882E+010.0000000000E+00+
*       1.1021730773E-01               1
GRID*               6559               03.6486338479E+010.0000000000E+00+
*       -3.303174496E-01               1
GRID*               6560               03.6425806695E+010.0000000000E+00+
*       -7.668426115E-01               1
GRID*               6561               03.6317619812E+010.0000000000E+00+
*       -1.194058975E+00               1
GRID*               6562               03.6163093801E+010.0000000000E+00+
*       -1.606781760E+00               1
GRID*               6563               03.5964100718E+010.0000000000E+00+
*       -1.999999271E+00               1
GRID*               6564               03.5723060068E+010.0000000000E+00+
*       -2.368940607E+00               1
GRID*               6565               03.5442895343E+010.0000000000E+00+
*       -2.709125844E+00               1
GRID*               6566               03.5127007531E+010.0000000000E+00+
*       -3.016425669E+00               1
GRID*               6567               03.4779232115E+010.0000000000E+00+
*       -3.287111042E+00               1
GRID*               6568               03.4403789358E+010.0000000000E+00+
*       -3.517894559E+00               1
GRID*               6569               03.4005237287E+010.0000000000E+00+
*       -3.705975753E+00               1
GRID*               6570               03.3588413820E+010.0000000000E+00+
*       -3.849071824E+00               1
GRID*               6571               03.3158378342E+010.0000000000E+00+
*       -3.945445023E+00               1
GRID*               6572               03.2720351016E+010.0000000000E+00+
*       -3.993925515E+00               1
GRID*               6573               03.2995476061E+010.0000000000E+00+
*       5.9795067968E+00               1
GRID*               6574               03.3487567495E+010.0000000000E+00+
*       5.9181675035E+00               1
GRID*               6575               03.3972912865E+010.0000000000E+00+
*       5.8164013411E+00               1
GRID*               6576               03.4448196744E+010.0000000000E+00+
*       5.6749032419E+00               1
GRID*               6577               03.4910172392E+010.0000000000E+00+
*       5.4946396005E+00               1
GRID*               6578               03.5355684509E+010.0000000000E+00+
*       5.2768427791E+00               1
GRID*               6579               03.5781688795E+010.0000000000E+00+
*       5.0229986341E+00               1
GRID*               6580               03.6185276426E+010.0000000000E+00+
*       4.7348432835E+00               1
GRID*               6581               03.6563689236E+010.0000000000E+00+
*       4.4143433057E+00               1
GRID*               6582               03.6914342957E+010.0000000000E+00+
*       4.0636890071E+00               1
GRID*               6583               03.7234842151E+010.0000000000E+00+
*       3.6852755439E+00               1
GRID*               6584               03.7522998076E+010.0000000000E+00+
*       3.2816883118E+00               1
GRID*               6585               03.7776843867E+010.0000000000E+00+
*       2.8556850092E+00               1
GRID*               6586               03.7994638520E+010.0000000000E+00+
*       2.4101718254E+00               1
GRID*               6587               03.8174902284E+010.0000000000E+00+
*       1.9481961983E+00               1
GRID*               6588               03.8316400933E+010.0000000000E+00+
*       1.4729125382E+00               1
GRID*               6589               03.8418168720E+010.0000000000E+00+
*       9.8756744816E-01               1
GRID*               6590               03.8479508806E+010.0000000000E+00+
*       4.9547614112E-01               1
GRID*               6591               03.8500000000E+010.0000000000E+00+
*       0.0000000000E+00               1
GRID*               6592               03.8479508806E+010.0000000000E+00+
*       -4.954761411E-01               1
GRID*               6593               03.8418168720E+010.0000000000E+00+
*       -9.875674482E-01               1
GRID*               6594               03.8316400933E+010.0000000000E+00+
*       -1.472912538E+00               1
GRID*               6595               03.8174902284E+010.0000000000E+00+
*       -1.948196198E+00               1
GRID*               6596               03.7994638520E+010.0000000000E+00+
*       -2.410171825E+00               1
GRID*               6597               03.7776843867E+010.0000000000E+00+
*       -2.855685009E+00               1
GRID*               6598               03.7522998076E+010.0000000000E+00+
*       -3.281688312E+00               1
GRID*               6599               03.7234842151E+010.0000000000E+00+
*       -3.685275544E+00               1
GRID*               6600               03.6914342957E+010.0000000000E+00+
*       -4.063689007E+00               1
GRID*               6601               03.6563689236E+010.0000000000E+00+
*       -4.414343306E+00               1
GRID*               6602               03.6185276426E+010.0000000000E+00+
*       -4.734843284E+00               1
GRID*               6603               03.5781688795E+010.0000000000E+00+
*       -5.022998634E+00               1
GRID*               6604               03.5355684509E+010.0000000000E+00+
*       -5.276842779E+00               1
GRID*               6605               03.4910172392E+010.0000000000E+00+
*       -5.494639601E+00               1
GRID*               6606               03.4448196744E+010.0000000000E+00+
*       -5.674903242E+00               1
GRID*               6607               03.3972912865E+010.0000000000E+00+
*       -5.816401341E+00               1
GRID*               6608               03.3487567495E+010.0000000000E+00+
*       -5.918167503E+00               1
GRID*               6609               03.2995476061E+010.0000000000E+00+
*       -5.979506797E+00               1
GRID*               6610               03.2747949841E+010.0000000000E+00+
*       -5.994870144E+00               1
GRID*               6611               03.3242155759E+010.0000000000E+00+
*       -5.953923171E+00               1
GRID*               6612               03.3731292070E+010.0000000000E+00+
*       -5.872301095E+00               1
GRID*               6613               03.4212017388E+010.0000000000E+00+
*       -5.750565035E+00               1
GRID*               6614               03.4681047754E+010.0000000000E+00+
*       -5.589546377E+00               1
GRID*               6615               03.5135179370E+010.0000000000E+00+
*       -5.390345542E+00               1
GRID*               6616               03.5571310079E+010.0000000000E+00+
*       -5.154323384E+00               1
GRID*               6617               03.5986460911E+010.0000000000E+00+
*       -4.883092315E+00               1
GRID*               6618               03.6377795481E+010.0000000000E+00+
*       -4.578504516E+00               1
GRID*               6619               03.6742640707E+010.0000000000E+00+
*       -4.242640761E+00               1
GRID*               6620               03.7078503830E+010.0000000000E+00+
*       -3.877794958E+00               1
GRID*               6621               03.7383091221E+010.0000000000E+00+
*       -3.486460055E+00               1
GRID*               6622               03.7654323827E+010.0000000000E+00+
*       -3.071310203E+00               1
GRID*               6623               03.7890345483E+010.0000000000E+00+
*       -2.635179290E+00               1
GRID*               6624               03.8089544914E+010.0000000000E+00+
*       -2.181047034E+00               1
GRID*               6625               03.8250565035E+010.0000000000E+00+
*       -1.712017158E+00               1
GRID*               6626               03.8372300601E+010.0000000000E+00+
*       -1.231291708E+00               1
GRID*               6627               03.8453925338E+010.0000000000E+00+
*       -7.421558626E-01               1
GRID*               6628               03.8494875159E+010.0000000000E+00+
*       -2.479498635E-01               1
GRID*               6629               03.8494875159E+010.0000000000E+00+
*       2.4794986351E-01               1
GRID*               6630               03.8453925338E+010.0000000000E+00+
*       7.4215586258E-01               1
GRID*               6631               03.8372300601E+010.0000000000E+00+
*       1.2312917076E+00               1
GRID*               6632               03.8250565035E+010.0000000000E+00+
*       1.7120171582E+00               1
GRID*               6633               03.8089544914E+010.0000000000E+00+
*       2.1810470336E+00               1
GRID*               6634               03.7890345483E+010.0000000000E+00+
*       2.6351792903E+00               1
GRID*               6635               03.7654323827E+010.0000000000E+00+
*       3.0713102034E+00               1
GRID*               6636               03.7383091221E+010.0000000000E+00+
*       3.4864600555E+00               1
GRID*               6637               03.7078503830E+010.0000000000E+00+
*       3.8777949580E+00               1
GRID*               6638               03.6742640707E+010.0000000000E+00+
*       4.2426407607E+00               1
GRID*               6639               03.6377795481E+010.0000000000E+00+
*       4.5785045159E+00               1
GRID*               6640               03.5986460911E+010.0000000000E+00+
*       4.8830923145E+00               1
GRID*               6641               03.5571310079E+010.0000000000E+00+
*       5.1543233842E+00               1
GRID*               6642               03.5135179370E+010.0000000000E+00+
*       5.3903455420E+00               1
GRID*               6643               03.4681047754E+010.0000000000E+00+
*       5.5895463770E+00               1
GRID*               6644               03.4212017388E+010.0000000000E+00+
*       5.7505650350E+00               1
GRID*               6645               03.3731292070E+010.0000000000E+00+
*       5.8723010946E+00               1
GRID*               6646               03.3242155759E+010.0000000000E+00+
*       5.9539231709E+00               1
GRID*               6647               03.2747949841E+010.0000000000E+00+
*       5.9948701439E+00               1
GRID*               6648               0-3.250000000E+010.0000000000E+00+
*       -6.000000000E+00               1
GRID*               6649               0-3.250000000E+010.0000000000E+00+
*       6.0000000000E+00               1
GRID*               6650               0-3.250000000E+010.0000000000E+00+
*       -4.000000000E+00               0
GRID*               6651               0-2.250000000E+010.0000000000E+00+
*       3.5000000000E+00               0
GRID*               6652               0-2.250000000E+010.0000000000E+00+
*       -3.500000000E+00               0
GRID*               6653               03.2500000000E+010.0000000000E+00+
*       -6.000000000E+00               1
GRID*               6654               02.2500000000E+010.0000000000E+00+
*       -3.500000000E+00               0
GRID*               6655               02.2500000000E+010.0000000000E+00+
*       3.5000000000E+00               0
GRID*               6656               03.2500000000E+010.0000000000E+00+
*       6.0000000000E+00               1
GRID*               6657               03.2500000000E+010.0000000000E+00+
*       -4.000000000E+00               1
$*
$* ELEMENT CARDS
$*
$*  Mesh Collector: Thin Shell(1)
$*  Mesh: 2d_mesh(1)
CQUAD8         1       1       1    6651    6067       2    1657    6068+
+           1658    1659
CQUAD8         2       1       2    6067    6066       3    1658    6069+
+           1660    1661
CQUAD8         3       1       3    6066    6065       4    1660    6070+
+           1662    1663
CQUAD8         4       1       4    6065    6064       5    1662    6071+
+           1664    1665
CQUAD8         5       1       5    6064    6063       6    1664    6072+
+           1666    1667
CQUAD8         6       1       6    6063    6062       7    1666    6073+
+           1668    1669
CQUAD8         7       1       7    6062    6061       8    1668    6074+
+           1670    1671
CQUAD8         8       1       8    6061    6060       9    1670    6075+
+           1672    1673
CQUAD8         9       1       9    6060    6059      10    1672    6076+
+           1674    1675
CQUAD8        10       1      10    6059    6058      11    1674    6077+
+           1676    1677
CQUAD8        11       1      11    6058    6057      12    1676    6078+
+           1678    1679
CQUAD8        12       1      12    6057    6056      13    1678    6079+
+           1680    1681
CQUAD8        13       1      13    6056    6055      14    1680    6080+
+           1682    1683
CQUAD8        14       1      14    6055    6054      15    1682    6081+
+           1684    1685
CQUAD8        15       1      15    6054    6053      16    1684    6082+
+           1686    1687
CQUAD8        16       1      16    6053    6052      17    1686    6083+
+           1688    1689
CQUAD8        17       1      17    6052    6051      18    1688    6084+
+           1690    1691
CQUAD8        18       1      18    6051    6050      19    1690    6085+
+           1692    1693
CQUAD8        19       1      19    6050    6049      20    1692    6086+
+           1694    1695
CQUAD8        20       1      20    6049    6048      21    1694    6087+
+           1696    1697
CQUAD8        21       1      21    6048    6047      22    1696    6088+
+           1698    1699
CQUAD8        22       1      22    6047    6046      23    1698    6089+
+           1700    1701
CQUAD8        23       1      23    6046    6045      24    1700    6090+
+           1702    1703
CQUAD8        24       1      24    6045    6044      25    1702    6091+
+           1704    1705
CQUAD8        25       1      25    6044    6043      26    1704    6092+
+           1706    1707
CQUAD8        26       1      26    6043    6042      27    1706    6093+
+           1708    1709
CQUAD8        27       1      27    6042    6041      28    1708    6094+
+           1710    1711
CQUAD8        28       1      28    6041    6040      29    1710    6095+
+           1712    1713
CQUAD8        29       1      29    6040    6039      30    1712    6096+
+           1714    1715
CQUAD8        30       1      30    6039    6038      31    1714    6097+
+           1716    1717
CQUAD8        31       1      31    6038    6037      32    1716    6098+
+           1718    1719
CQUAD8        32       1      32    6037    6036      33    1718    6099+
+           1720    1721
CQUAD8        33       1      33    6036    6035      34    1720    6100+
+           1722    1723
CQUAD8        34       1      34    6035    6034      35    1722    6101+
+           1724    1725
CQUAD8        35       1      35    6034    6033      36    1724    6102+
+           1726    1727
CQUAD8        36       1      36    6033    6032      37    1726    6103+
+           1728    1729
CQUAD8        37       1      37    6032    6031      38    1728    6104+
+           1730    1731
CQUAD8        38       1      38    6031    6030      39    1730    6105+
+           1732    1733
CQUAD8        39       1      39    6030    6029      40    1732    6106+
+           1734    1735
CQUAD8        40       1      40    6029    6028      41    1734    6107+
+           1736    1737
CQUAD8        41       1      41    6028    6027      42    1736    6108+
+           1738    1739
CQUAD8        42       1      42    6027    6026      43    1738    6109+
+           1740    1741
CQUAD8        43       1      43    6026    6025      44    1740    6110+
+           1742    1743
CQUAD8        44       1      44    6025    6024      45    1742    6111+
+           1744    1745
CQUAD8        45       1      45    6024    6023      46    1744    6112+
+           1746    1747
CQUAD8        46       1      46    6023    6022      47    1746    6113+
+           1748    1749
CQUAD8        47       1      47    6022    6021      48    1748    6114+
+           1750    1751
CQUAD8        48       1      48    6021    6020      49    1750    6115+
+           1752    1753
CQUAD8        49       1      49    6020    6019      50    1752    6116+
+           1754    1755
CQUAD8        50       1      50    6019    6018      51    1754    6117+
+           1756    1757
CQUAD8        51       1      51    6018    6017      52    1756    6118+
+           1758    1759
CQUAD8        52       1      52    6017    6016      53    1758    6119+
+           1760    1761
CQUAD8        53       1      53    6016    6015      54    1760    6120+
+           1762    1763
CQUAD8        54       1      54    6015    6014      55    1762    6121+
+           1764    1765
CQUAD8        55       1      55    6014    6013      56    1764    6122+
+           1766    1767
CQUAD8        56       1      56    6013    6012      57    1766    6123+
+           1768    1769
CQUAD8        57       1      57    6012    6011      58    1768    6124+
+           1770    1771
CQUAD8        58       1      58    6011    6010      59    1770    6125+
+           1772    1773
CQUAD8        59       1      59    6010    6009      60    1772    6126+
+           1774    1775
CQUAD8        60       1      60    6009    6008      61    1774    6127+
+           1776    1777
CQUAD8        61       1      61    6008    6007      62    1776    6128+
+           1778    1779
CQUAD8        62       1      62    6007    6006      63    1778    6129+
+           1780    1781
CQUAD8        63       1      63    6006    6005      64    1780    6130+
+           1782    1783
CQUAD8        64       1      64    6005    6004      65    1782    6131+
+           1784    1785
CQUAD8        65       1      65    6004    6003      66    1784    6132+
+           1786    1787
CQUAD8        66       1      66    6003    6002      67    1786    6133+
+           1788    1789
CQUAD8        67       1      67    6002    6001      68    1788    6134+
+           1790    1791
CQUAD8        68       1      68    6001    6000      69    1790    6135+
+           1792    1793
CQUAD8        69       1      69    6000    5999      70    1792    6136+
+           1794    1795
CQUAD8        70       1      70    5999    5998      71    1794    6137+
+           1796    1797
CQUAD8        71       1      71    5998    5997      72    1796    6138+
+           1798    1799
CQUAD8        72       1      72    5997    5996      73    1798    6139+
+           1800    1801
CQUAD8        73       1      73    5996    5995      74    1800    6140+
+           1802    1803
CQUAD8        74       1      74    5995    5994      75    1802    6141+
+           1804    1805
CQUAD8        75       1      75    5994    5993      76    1804    6142+
+           1806    1807
CQUAD8        76       1      76    5993    5992      77    1806    6143+
+           1808    1809
CQUAD8        77       1      77    5992    5991      78    1808    6144+
+           1810    1811
CQUAD8        78       1      78    5991    5990      79    1810    6145+
+           1812    1813
CQUAD8        79       1      79    5990    5989      80    1812    6146+
+           1814    1815
CQUAD8        80       1      80    5989    5988      81    1814    6147+
+           1816    1817
CQUAD8        81       1      81    5988    5987      82    1816    6148+
+           1818    1819
CQUAD8        82       1      82    5987    5986      83    1818    6149+
+           1820    1821
CQUAD8        83       1      83    5986    5985      84    1820    6150+
+           1822    1823
CQUAD8        84       1      84    5985    5984      85    1822    6151+
+           1824    1825
CQUAD8        85       1      85    5984    5983      86    1824    6152+
+           1826    1827
CQUAD8        86       1      86    5983    5982      87    1826    6153+
+           1828    1829
CQUAD8        87       1      87    5982    5981      88    1828    6154+
+           1830    1831
CQUAD8        88       1      88    5981    5980      89    1830    6155+
+           1832    1833
CQUAD8        89       1      89    5980    5979      90    1832    6156+
+           1834    1835
CQUAD8        90       1      90    5979    6655      91    1834    6157+
+           1836    1837
CQUAD8        91       1      91    6655    6437      92    1836    6438+
+           1838    1839
CQUAD8        92       1      92    6437    6436      93    1838    6439+
+           1840    1841
CQUAD8        93       1      93    6436    6435      94    1840    6440+
+           1842    1843
CQUAD8        94       1      94    6435    6434      95    1842    6441+
+           1844    1845
CQUAD8        95       1      95    6434    6433      96    1844    6442+
+           1846    1847
CQUAD8        96       1      96    6433    6432      97    1846    6443+
+           1848    1849
CQUAD8        97       1      97    6432    6431      98    1848    6444+
+           1850    1851
CQUAD8        98       1      98    6431    6430      99    1850    6445+
+           1852    1853
CQUAD8        99       1      99    6430    6429     100    1852    6446+
+           1854    1855
CQUAD8       100       1     100    6429    6428     101    1854    6447+
+           1856    1857
CQUAD8       101       1     101    6428    6427     102    1856    6448+
+           1858    1859
CQUAD8       102       1     102    6427    6426     103    1858    6449+
+           1860    1861
CQUAD8       103       1     103    6426    6425     104    1860    6450+
+           1862    1863
CQUAD8       104       1     104    6425    6424     105    1862    6451+
+           1864    1865
CQUAD8       105       1     105    6424    6423     106    1864    6452+
+           1866    1867
CQUAD8       106       1     106    6423    6422     107    1866    6453+
+           1868    1869
CQUAD8       107       1     107    6422    6421     108    1868    6454+
+           1870    1871
CQUAD8       108       1     108    6421    6420     109    1870    6455+
+           1872    1873
CQUAD8       109       1     109    6420    6419     110    1872    6456+
+           1874    1875
CQUAD8       110       1     110    6419    6418     111    1874    6457+
+           1876    1877
CQUAD8       111       1     111    6418    6417     112    1876    6458+
+           1878    1879
CQUAD8       112       1     112    6417    6654     113    1878    6459+
+           1880    1881
CQUAD8       113       1     113    6654    5888     114    1880    5889+
+           1882    1883
CQUAD8       114       1     114    5888    5887     115    1882    5890+
+           1884    1885
CQUAD8       115       1     115    5887    5886     116    1884    5891+
+           1886    1887
CQUAD8       116       1     116    5886    5885     117    1886    5892+
+           1888    1889
CQUAD8       117       1     117    5885    5884     118    1888    5893+
+           1890    1891
CQUAD8       118       1     118    5884    5883     119    1890    5894+
+           1892    1893
CQUAD8       119       1     119    5883    5882     120    1892    5895+
+           1894    1895
CQUAD8       120       1     120    5882    5881     121    1894    5896+
+           1896    1897
CQUAD8       121       1     121    5881    5880     122    1896    5897+
+           1898    1899
CQUAD8       122       1     122    5880    5879     123    1898    5898+
+           1900    1901
CQUAD8       123       1     123    5879    5878     124    1900    5899+
+           1902    1903
CQUAD8       124       1     124    5878    5877     125    1902    5900+
+           1904    1905
CQUAD8       125       1     125    5877    5876     126    1904    5901+
+           1906    1907
CQUAD8       126       1     126    5876    5875     127    1906    5902+
+           1908    1909
CQUAD8       127       1     127    5875    5874     128    1908    5903+
+           1910    1911
CQUAD8       128       1     128    5874    5873     129    1910    5904+
+           1912    1913
CQUAD8       129       1     129    5873    5872     130    1912    5905+
+           1914    1915
CQUAD8       130       1     130    5872    5871     131    1914    5906+
+           1916    1917
CQUAD8       131       1     131    5871    5870     132    1916    5907+
+           1918    1919
CQUAD8       132       1     132    5870    5869     133    1918    5908+
+           1920    1921
CQUAD8       133       1     133    5869    5868     134    1920    5909+
+           1922    1923
CQUAD8       134       1     134    5868    5867     135    1922    5910+
+           1924    1925
CQUAD8       135       1     135    5867    5866     136    1924    5911+
+           1926    1927
CQUAD8       136       1     136    5866    5865     137    1926    5912+
+           1928    1929
CQUAD8       137       1     137    5865    5864     138    1928    5913+
+           1930    1931
CQUAD8       138       1     138    5864    5863     139    1930    5914+
+           1932    1933
CQUAD8       139       1     139    5863    5862     140    1932    5915+
+           1934    1935
CQUAD8       140       1     140    5862    5861     141    1934    5916+
+           1936    1937
CQUAD8       141       1     141    5861    5860     142    1936    5917+
+           1938    1939
CQUAD8       142       1     142    5860    5859     143    1938    5918+
+           1940    1941
CQUAD8       143       1     143    5859    5858     144    1940    5919+
+           1942    1943
CQUAD8       144       1     144    5858    5857     145    1942    5920+
+           1944    1945
CQUAD8       145       1     145    5857    5856     146    1944    5921+
+           1946    1947
CQUAD8       146       1     146    5856    5855     147    1946    5922+
+           1948    1949
CQUAD8       147       1     147    5855    5854     148    1948    5923+
+           1950    1951
CQUAD8       148       1     148    5854    5853     149    1950    5924+
+           1952    1953
CQUAD8       149       1     149    5853    5852     150    1952    5925+
+           1954    1955
CQUAD8       150       1     150    5852    5851     151    1954    5926+
+           1956    1957
CQUAD8       151       1     151    5851    5850     152    1956    5927+
+           1958    1959
CQUAD8       152       1     152    5850    5849     153    1958    5928+
+           1960    1961
CQUAD8       153       1     153    5849    5848     154    1960    5929+
+           1962    1963
CQUAD8       154       1     154    5848    5847     155    1962    5930+
+           1964    1965
CQUAD8       155       1     155    5847    5846     156    1964    5931+
+           1966    1967
CQUAD8       156       1     156    5846    5845     157    1966    5932+
+           1968    1969
CQUAD8       157       1     157    5845    5844     158    1968    5933+
+           1970    1971
CQUAD8       158       1     158    5844    5843     159    1970    5934+
+           1972    1973
CQUAD8       159       1     159    5843    5842     160    1972    5935+
+           1974    1975
CQUAD8       160       1     160    5842    5841     161    1974    5936+
+           1976    1977
CQUAD8       161       1     161    5841    5840     162    1976    5937+
+           1978    1979
CQUAD8       162       1     162    5840    5839     163    1978    5938+
+           1980    1981
CQUAD8       163       1     163    5839    5838     164    1980    5939+
+           1982    1983
CQUAD8       164       1     164    5838    5837     165    1982    5940+
+           1984    1985
CQUAD8       165       1     165    5837    5836     166    1984    5941+
+           1986    1987
CQUAD8       166       1     166    5836    5835     167    1986    5942+
+           1988    1989
CQUAD8       167       1     167    5835    5834     168    1988    5943+
+           1990    1991
CQUAD8       168       1     168    5834    5833     169    1990    5944+
+           1992    1993
CQUAD8       169       1     169    5833    5832     170    1992    5945+
+           1994    1995
CQUAD8       170       1     170    5832    5831     171    1994    5946+
+           1996    1997
CQUAD8       171       1     171    5831    5830     172    1996    5947+
+           1998    1999
CQUAD8       172       1     172    5830    5829     173    1998    5948+
+           2000    2001
CQUAD8       173       1     173    5829    5828     174    2000    5949+
+           2002    2003
CQUAD8       174       1     174    5828    5827     175    2002    5950+
+           2004    2005
CQUAD8       175       1     175    5827    5826     176    2004    5951+
+           2006    2007
CQUAD8       176       1     176    5826    5825     177    2006    5952+
+           2008    2009
CQUAD8       177       1     177    5825    5824     178    2008    5953+
+           2010    2011
CQUAD8       178       1     178    5824    5823     179    2010    5954+
+           2012    2013
CQUAD8       179       1     179    5823    5822     180    2012    5955+
+           2014    2015
CQUAD8       180       1     180    5822    5821     181    2014    5956+
+           2016    2017
CQUAD8       181       1     181    5821    5820     182    2016    5957+
+           2018    2019
CQUAD8       182       1     182    5820    5819     183    2018    5958+
+           2020    2021
CQUAD8       183       1     183    5819    5818     184    2020    5959+
+           2022    2023
CQUAD8       184       1     184    5818    5817     185    2022    5960+
+           2024    2025
CQUAD8       185       1     185    5817    5816     186    2024    5961+
+           2026    2027
CQUAD8       186       1     186    5816    5815     187    2026    5962+
+           2028    2029
CQUAD8       187       1     187    5815    5814     188    2028    5963+
+           2030    2031
CQUAD8       188       1     188    5814    5813     189    2030    5964+
+           2032    2033
CQUAD8       189       1     189    5813    5812     190    2032    5965+
+           2034    2035
CQUAD8       190       1     190    5812    5811     191    2034    5966+
+           2036    2037
CQUAD8       191       1     191    5811    5810     192    2036    5967+
+           2038    2039
CQUAD8       192       1     192    5810    5809     193    2038    5968+
+           2040    2041
CQUAD8       193       1     193    5809    5808     194    2040    5969+
+           2042    2043
CQUAD8       194       1     194    5808    5807     195    2042    5970+
+           2044    2045
CQUAD8       195       1     195    5807    5806     196    2044    5971+
+           2046    2047
CQUAD8       196       1     196    5806    5805     197    2046    5972+
+           2048    2049
CQUAD8       197       1     197    5805    5804     198    2048    5973+
+           2050    2051
CQUAD8       198       1     198    5804    5803     199    2050    5974+
+           2052    2053
CQUAD8       199       1     199    5803    5802     200    2052    5975+
+           2054    2055
CQUAD8       200       1     200    5802    5801     201    2054    5976+
+           2056    2057
CQUAD8       201       1     201    5801    5800     202    2056    5977+
+           2058    2059
CQUAD8       202       1     202    5800    6652     203    2058    5978+
+           2060    2061
CQUAD8       203       1     203    6652    5518     204    2060    5519+
+           2062    2063
CQUAD8       204       1     204    5518    5517     205    2062    5520+
+           2064    2065
CQUAD8       205       1     205    5517    5516     206    2064    5521+
+           2066    2067
CQUAD8       206       1     206    5516    5515     207    2066    5522+
+           2068    2069
CQUAD8       207       1     207    5515    5514     208    2068    5523+
+           2070    2071
CQUAD8       208       1     208    5514    5513     209    2070    5524+
+           2072    2073
CQUAD8       209       1     209    5513    5512     210    2072    5525+
+           2074    2075
CQUAD8       210       1     210    5512    5511     211    2074    5526+
+           2076    2077
CQUAD8       211       1     211    5511    5510     212    2076    5527+
+           2078    2079
CQUAD8       212       1     212    5510    5509     213    2078    5528+
+           2080    2081
CQUAD8       213       1     213    5509    5508     214    2080    5529+
+           2082    2083
CQUAD8       214       1     214    5508    5507     215    2082    5530+
+           2084    2085
CQUAD8       215       1     215    5507    5506     216    2084    5531+
+           2086    2087
CQUAD8       216       1     216    5506    5505     217    2086    5532+
+           2088    2089
CQUAD8       217       1     217    5505    5504     218    2088    5533+
+           2090    2091
CQUAD8       218       1     218    5504    5503     219    2090    5534+
+           2092    2093
CQUAD8       219       1     219    5503    5502     220    2092    5535+
+           2094    2095
CQUAD8       220       1     220    5502    5501     221    2094    5536+
+           2096    2097
CQUAD8       221       1     221    5501    5500     222    2096    5537+
+           2098    2099
CQUAD8       222       1     222    5500    5499     223    2098    5538+
+           2100    2101
CQUAD8       223       1     223    5499    5498     224    2100    5539+
+           2102    2103
CQUAD8       224       1     224    5498    6651       1    2102    5540+
+           1657    2104
CQUAD8       225       1     225    6657    6460     226    2105    6516+
+           2106    2107
CQUAD8       226       1     226    6460    6461     227    2106    6517+
+           2108    2109
CQUAD8       227       1     227    6461    6462     228    2108    6518+
+           2110    2111
CQUAD8       228       1     228    6462    6463     229    2110    6519+
+           2112    2113
CQUAD8       229       1     229    6463    6464     230    2112    6520+
+           2114    2115
CQUAD8       230       1     230    6464    6465     231    2114    6521+
+           2116    2117
CQUAD8       231       1     231    6465    6466     232    2116    6522+
+           2118    2119
CQUAD8       232       1     232    6466    6467     233    2118    6523+
+           2120    2121
CQUAD8       233       1     233    6467    6468     234    2120    6524+
+           2122    2123
CQUAD8       234       1     234    6468    6469     235    2122    6525+
+           2124    2125
CQUAD8       235       1     235    6469    6470     236    2124    6526+
+           2126    2127
CQUAD8       236       1     236    6470    6471     237    2126    6527+
+           2128    2129
CQUAD8       237       1     237    6471    6472     238    2128    6528+
+           2130    2131
CQUAD8       238       1     238    6472    6473     239    2130    6529+
+           2132    2133
CQUAD8       239       1     239    6473    6474     240    2132    6530+
+           2134    2135
CQUAD8       240       1     240    6474    6475     241    2134    6531+
+           2136    2137
CQUAD8       241       1     241    6475    6476     242    2136    6532+
+           2138    2139
CQUAD8       242       1     242    6476    6477     243    2138    6533+
+           2140    2141
CQUAD8       243       1     243    6477    6478     244    2140    6534+
+           2142    2143
CQUAD8       244       1     244    6478    6479     245    2142    6535+
+           2144    2145
CQUAD8       245       1     245    6479    6480     246    2144    6536+
+           2146    2147
CQUAD8       246       1     246    6480    6481     247    2146    6537+
+           2148    2149
CQUAD8       247       1     247    6481    6482     248    2148    6538+
+           2150    2151
CQUAD8       248       1     248    6482    6483     249    2150    6539+
+           2152    2153
CQUAD8       249       1     249    6483    6484     250    2152    6540+
+           2154    2155
CQUAD8       250       1     250    6484    6485     251    2154    6541+
+           2156    2157
CQUAD8       251       1     251    6485    6486     252    2156    6542+
+           2158    2159
CQUAD8       252       1     252    6486    6487     253    2158    6543+
+           2160    2161
CQUAD8       253       1     253    6487    6488     254    2160    6544+
+           2162    2163
CQUAD8       254       1     254    6488    6489     255    2162    6545+
+           2164    2165
CQUAD8       255       1     255    6489    6490     256    2164    6546+
+           2166    2167
CQUAD8       256       1     256    6490    6491     257    2166    6547+
+           2168    2169
CQUAD8       257       1     257    6491    6492     258    2168    6548+
+           2170    2171
CQUAD8       258       1     258    6492    6493     259    2170    6549+
+           2172    2173
CQUAD8       259       1     259    6493    6494     260    2172    6550+
+           2174    2175
CQUAD8       260       1     260    6494    6495     261    2174    6551+
+           2176    2177
CQUAD8       261       1     261    6495    6496     262    2176    6552+
+           2178    2179
CQUAD8       262       1     262    6496    6497     263    2178    6553+
+           2180    2181
CQUAD8       263       1     263    6497    6498     264    2180    6554+
+           2182    2183
CQUAD8       264       1     264    6498    6499     265    2182    6555+
+           2184    2185
CQUAD8       265       1     265    6499    6500     266    2184    6556+
+           2186    2187
CQUAD8       266       1     266    6500    6501     267    2186    6557+
+           2188    2189
CQUAD8       267       1     267    6501    6502     268    2188    6558+
+           2190    2191
CQUAD8       268       1     268    6502    6503     269    2190    6559+
+           2192    2193
CQUAD8       269       1     269    6503    6504     270    2192    6560+
+           2194    2195
CQUAD8       270       1     270    6504    6505     271    2194    6561+
+           2196    2197
CQUAD8       271       1     271    6505    6506     272    2196    6562+
+           2198    2199
CQUAD8       272       1     272    6506    6507     273    2198    6563+
+           2200    2201
CQUAD8       273       1     273    6507    6508     274    2200    6564+
+           2202    2203
CQUAD8       274       1     274    6508    6509     275    2202    6565+
+           2204    2205
CQUAD8       275       1     275    6509    6510     276    2204    6566+
+           2206    2207
CQUAD8       276       1     276    6510    6511     277    2206    6567+
+           2208    2209
CQUAD8       277       1     277    6511    6512     278    2208    6568+
+           2210    2211
CQUAD8       278       1     278    6512    6513     279    2210    6569+
+           2212    2213
CQUAD8       279       1     279    6513    6514     280    2212    6570+
+           2214    2215
CQUAD8       280       1     280    6514    6515     281    2214    6571+
+           2216    2217
CQUAD8       281       1     281    6515    6657     225    2216    6572+
+           2105    2218
CQUAD8       282       1     282    6650    5385     283    2219    5441+
+           2220    2221
CQUAD8       283       1     283    5385    5386     284    2220    5442+
+           2222    2223
CQUAD8       284       1     284    5386    5387     285    2222    5443+
+           2224    2225
CQUAD8       285       1     285    5387    5388     286    2224    5444+
+           2226    2227
CQUAD8       286       1     286    5388    5389     287    2226    5445+
+           2228    2229
CQUAD8       287       1     287    5389    5390     288    2228    5446+
+           2230    2231
CQUAD8       288       1     288    5390    5391     289    2230    5447+
+           2232    2233
CQUAD8       289       1     289    5391    5392     290    2232    5448+
+           2234    2235
CQUAD8       290       1     290    5392    5393     291    2234    5449+
+           2236    2237
CQUAD8       291       1     291    5393    5394     292    2236    5450+
+           2238    2239
CQUAD8       292       1     292    5394    5395     293    2238    5451+
+           2240    2241
CQUAD8       293       1     293    5395    5396     294    2240    5452+
+           2242    2243
CQUAD8       294       1     294    5396    5397     295    2242    5453+
+           2244    2245
CQUAD8       295       1     295    5397    5398     296    2244    5454+
+           2246    2247
CQUAD8       296       1     296    5398    5399     297    2246    5455+
+           2248    2249
CQUAD8       297       1     297    5399    5400     298    2248    5456+
+           2250    2251
CQUAD8       298       1     298    5400    5401     299    2250    5457+
+           2252    2253
CQUAD8       299       1     299    5401    5402     300    2252    5458+
+           2254    2255
CQUAD8       300       1     300    5402    5403     301    2254    5459+
+           2256    2257
CQUAD8       301       1     301    5403    5404     302    2256    5460+
+           2258    2259
CQUAD8       302       1     302    5404    5405     303    2258    5461+
+           2260    2261
CQUAD8       303       1     303    5405    5406     304    2260    5462+
+           2262    2263
CQUAD8       304       1     304    5406    5407     305    2262    5463+
+           2264    2265
CQUAD8       305       1     305    5407    5408     306    2264    5464+
+           2266    2267
CQUAD8       306       1     306    5408    5409     307    2266    5465+
+           2268    2269
CQUAD8       307       1     307    5409    5410     308    2268    5466+
+           2270    2271
CQUAD8       308       1     308    5410    5411     309    2270    5467+
+           2272    2273
CQUAD8       309       1     309    5411    5412     310    2272    5468+
+           2274    2275
CQUAD8       310       1     310    5412    5413     311    2274    5469+
+           2276    2277
CQUAD8       311       1     311    5413    5414     312    2276    5470+
+           2278    2279
CQUAD8       312       1     312    5414    5415     313    2278    5471+
+           2280    2281
CQUAD8       313       1     313    5415    5416     314    2280    5472+
+           2282    2283
CQUAD8       314       1     314    5416    5417     315    2282    5473+
+           2284    2285
CQUAD8       315       1     315    5417    5418     316    2284    5474+
+           2286    2287
CQUAD8       316       1     316    5418    5419     317    2286    5475+
+           2288    2289
CQUAD8       317       1     317    5419    5420     318    2288    5476+
+           2290    2291
CQUAD8       318       1     318    5420    5421     319    2290    5477+
+           2292    2293
CQUAD8       319       1     319    5421    5422     320    2292    5478+
+           2294    2295
CQUAD8       320       1     320    5422    5423     321    2294    5479+
+           2296    2297
CQUAD8       321       1     321    5423    5424     322    2296    5480+
+           2298    2299
CQUAD8       322       1     322    5424    5425     323    2298    5481+
+           2300    2301
CQUAD8       323       1     323    5425    5426     324    2300    5482+
+           2302    2303
CQUAD8       324       1     324    5426    5427     325    2302    5483+
+           2304    2305
CQUAD8       325       1     325    5427    5428     326    2304    5484+
+           2306    2307
CQUAD8       326       1     326    5428    5429     327    2306    5485+
+           2308    2309
CQUAD8       327       1     327    5429    5430     328    2308    5486+
+           2310    2311
CQUAD8       328       1     328    5430    5431     329    2310    5487+
+           2312    2313
CQUAD8       329       1     329    5431    5432     330    2312    5488+
+           2314    2315
CQUAD8       330       1     330    5432    5433     331    2314    5489+
+           2316    2317
CQUAD8       331       1     331    5433    5434     332    2316    5490+
+           2318    2319
CQUAD8       332       1     332    5434    5435     333    2318    5491+
+           2320    2321
CQUAD8       333       1     333    5435    5436     334    2320    5492+
+           2322    2323
CQUAD8       334       1     334    5436    5437     335    2322    5493+
+           2324    2325
CQUAD8       335       1     335    5437    5438     336    2324    5494+
+           2326    2327
CQUAD8       336       1     336    5438    5439     337    2326    5495+
+           2328    2329
CQUAD8       337       1     337    5439    5440     338    2328    5496+
+           2330    2331
CQUAD8       338       1     338    5440    6650     282    2330    5497+
+           2219    2332
CQUAD8       339       1     339    6656    6286     340    2333    6287+
+           2334    2335
CQUAD8       340       1     340    6286    6285     341    2334    6288+
+           2336    2337
CQUAD8       341       1     341    6285    6284     342    2336    6289+
+           2338    2339
CQUAD8       342       1     342    6284    6283     343    2338    6290+
+           2340    2341
CQUAD8       343       1     343    6283    6282     344    2340    6291+
+           2342    2343
CQUAD8       344       1     344    6282    6281     345    2342    6292+
+           2344    2345
CQUAD8       345       1     345    6281    6280     346    2344    6293+
+           2346    2347
CQUAD8       346       1     346    6280    6279     347    2346    6294+
+           2348    2349
CQUAD8       347       1     347    6279    6278     348    2348    6295+
+           2350    2351
CQUAD8       348       1     348    6278    6277     349    2350    6296+
+           2352    2353
CQUAD8       349       1     349    6277    6276     350    2352    6297+
+           2354    2355
CQUAD8       350       1     350    6276    6275     351    2354    6298+
+           2356    2357
CQUAD8       351       1     351    6275    6274     352    2356    6299+
+           2358    2359
CQUAD8       352       1     352    6274    6273     353    2358    6300+
+           2360    2361
CQUAD8       353       1     353    6273    6272     354    2360    6301+
+           2362    2363
CQUAD8       354       1     354    6272    6271     355    2362    6302+
+           2364    2365
CQUAD8       355       1     355    6271    6270     356    2364    6303+
+           2366    2367
CQUAD8       356       1     356    6270    6269     357    2366    6304+
+           2368    2369
CQUAD8       357       1     357    6269    6268     358    2368    6305+
+           2370    2371
CQUAD8       358       1     358    6268    6267     359    2370    6306+
+           2372    2373
CQUAD8       359       1     359    6267    6266     360    2372    6307+
+           2374    2375
CQUAD8       360       1     360    6266    6265     361    2374    6308+
+           2376    2377
CQUAD8       361       1     361    6265    6264     362    2376    6309+
+           2378    2379
CQUAD8       362       1     362    6264    6263     363    2378    6310+
+           2380    2381
CQUAD8       363       1     363    6263    6262     364    2380    6311+
+           2382    2383
CQUAD8       364       1     364    6262    6261     365    2382    6312+
+           2384    2385
CQUAD8       365       1     365    6261    6260     366    2384    6313+
+           2386    2387
CQUAD8       366       1     366    6260    6259     367    2386    6314+
+           2388    2389
CQUAD8       367       1     367    6259    6258     368    2388    6315+
+           2390    2391
CQUAD8       368       1     368    6258    6257     369    2390    6316+
+           2392    2393
CQUAD8       369       1     369    6257    6256     370    2392    6317+
+           2394    2395
CQUAD8       370       1     370    6256    6255     371    2394    6318+
+           2396    2397
CQUAD8       371       1     371    6255    6254     372    2396    6319+
+           2398    2399
CQUAD8       372       1     372    6254    6253     373    2398    6320+
+           2400    2401
CQUAD8       373       1     373    6253    6252     374    2400    6321+
+           2402    2403
CQUAD8       374       1     374    6252    6251     375    2402    6322+
+           2404    2405
CQUAD8       375       1     375    6251    6250     376    2404    6323+
+           2406    2407
CQUAD8       376       1     376    6250    6249     377    2406    6324+
+           2408    2409
CQUAD8       377       1     377    6249    6248     378    2408    6325+
+           2410    2411
CQUAD8       378       1     378    6248    6247     379    2410    6326+
+           2412    2413
CQUAD8       379       1     379    6247    6246     380    2412    6327+
+           2414    2415
CQUAD8       380       1     380    6246    6245     381    2414    6328+
+           2416    2417
CQUAD8       381       1     381    6245    6244     382    2416    6329+
+           2418    2419
CQUAD8       382       1     382    6244    6243     383    2418    6330+
+           2420    2421
CQUAD8       383       1     383    6243    6242     384    2420    6331+
+           2422    2423
CQUAD8       384       1     384    6242    6241     385    2422    6332+
+           2424    2425
CQUAD8       385       1     385    6241    6240     386    2424    6333+
+           2426    2427
CQUAD8       386       1     386    6240    6239     387    2426    6334+
+           2428    2429
CQUAD8       387       1     387    6239    6238     388    2428    6335+
+           2430    2431
CQUAD8       388       1     388    6238    6237     389    2430    6336+
+           2432    2433
CQUAD8       389       1     389    6237    6236     390    2432    6337+
+           2434    2435
CQUAD8       390       1     390    6236    6235     391    2434    6338+
+           2436    2437
CQUAD8       391       1     391    6235    6234     392    2436    6339+
+           2438    2439
CQUAD8       392       1     392    6234    6233     393    2438    6340+
+           2440    2441
CQUAD8       393       1     393    6233    6232     394    2440    6341+
+           2442    2443
CQUAD8       394       1     394    6232    6231     395    2442    6342+
+           2444    2445
CQUAD8       395       1     395    6231    6230     396    2444    6343+
+           2446    2447
CQUAD8       396       1     396    6230    6229     397    2446    6344+
+           2448    2449
CQUAD8       397       1     397    6229    6228     398    2448    6345+
+           2450    2451
CQUAD8       398       1     398    6228    6227     399    2450    6346+
+           2452    2453
CQUAD8       399       1     399    6227    6226     400    2452    6347+
+           2454    2455
CQUAD8       400       1     400    6226    6225     401    2454    6348+
+           2456    2457
CQUAD8       401       1     401    6225    6224     402    2456    6349+
+           2458    2459
CQUAD8       402       1     402    6224    6223     403    2458    6350+
+           2460    2461
CQUAD8       403       1     403    6223    6222     404    2460    6351+
+           2462    2463
CQUAD8       404       1     404    6222    6221     405    2462    6352+
+           2464    2465
CQUAD8       405       1     405    6221    6220     406    2464    6353+
+           2466    2467
CQUAD8       406       1     406    6220    6219     407    2466    6354+
+           2468    2469
CQUAD8       407       1     407    6219    6218     408    2468    6355+
+           2470    2471
CQUAD8       408       1     408    6218    6217     409    2470    6356+
+           2472    2473
CQUAD8       409       1     409    6217    6216     410    2472    6357+
+           2474    2475
CQUAD8       410       1     410    6216    6215     411    2474    6358+
+           2476    2477
CQUAD8       411       1     411    6215    6214     412    2476    6359+
+           2478    2479
CQUAD8       412       1     412    6214    6213     413    2478    6360+
+           2480    2481
CQUAD8       413       1     413    6213    6212     414    2480    6361+
+           2482    2483
CQUAD8       414       1     414    6212    6211     415    2482    6362+
+           2484    2485
CQUAD8       415       1     415    6211    6210     416    2484    6363+
+           2486    2487
CQUAD8       416       1     416    6210    6209     417    2486    6364+
+           2488    2489
CQUAD8       417       1     417    6209    6208     418    2488    6365+
+           2490    2491
CQUAD8       418       1     418    6208    6207     419    2490    6366+
+           2492    2493
CQUAD8       419       1     419    6207    6206     420    2492    6367+
+           2494    2495
CQUAD8       420       1     420    6206    6205     421    2494    6368+
+           2496    2497
CQUAD8       421       1     421    6205    6204     422    2496    6369+
+           2498    2499
CQUAD8       422       1     422    6204    6203     423    2498    6370+
+           2500    2501
CQUAD8       423       1     423    6203    6202     424    2500    6371+
+           2502    2503
CQUAD8       424       1     424    6202    6201     425    2502    6372+
+           2504    2505
CQUAD8       425       1     425    6201    6200     426    2504    6373+
+           2506    2507
CQUAD8       426       1     426    6200    6199     427    2506    6374+
+           2508    2509
CQUAD8       427       1     427    6199    6198     428    2508    6375+
+           2510    2511
CQUAD8       428       1     428    6198    6197     429    2510    6376+
+           2512    2513
CQUAD8       429       1     429    6197    6196     430    2512    6377+
+           2514    2515
CQUAD8       430       1     430    6196    6195     431    2514    6378+
+           2516    2517
CQUAD8       431       1     431    6195    6194     432    2516    6379+
+           2518    2519
CQUAD8       432       1     432    6194    6193     433    2518    6380+
+           2520    2521
CQUAD8       433       1     433    6193    6192     434    2520    6381+
+           2522    2523
CQUAD8       434       1     434    6192    6191     435    2522    6382+
+           2524    2525
CQUAD8       435       1     435    6191    6190     436    2524    6383+
+           2526    2527
CQUAD8       436       1     436    6190    6189     437    2526    6384+
+           2528    2529
CQUAD8       437       1     437    6189    6188     438    2528    6385+
+           2530    2531
CQUAD8       438       1     438    6188    6187     439    2530    6386+
+           2532    2533
CQUAD8       439       1     439    6187    6186     440    2532    6387+
+           2534    2535
CQUAD8       440       1     440    6186    6185     441    2534    6388+
+           2536    2537
CQUAD8       441       1     441    6185    6184     442    2536    6389+
+           2538    2539
CQUAD8       442       1     442    6184    6183     443    2538    6390+
+           2540    2541
CQUAD8       443       1     443    6183    6182     444    2540    6391+
+           2542    2543
CQUAD8       444       1     444    6182    6181     445    2542    6392+
+           2544    2545
CQUAD8       445       1     445    6181    6180     446    2544    6393+
+           2546    2547
CQUAD8       446       1     446    6180    6179     447    2546    6394+
+           2548    2549
CQUAD8       447       1     447    6179    6178     448    2548    6395+
+           2550    2551
CQUAD8       448       1     448    6178    6177     449    2550    6396+
+           2552    2553
CQUAD8       449       1     449    6177    6176     450    2552    6397+
+           2554    2555
CQUAD8       450       1     450    6176    6175     451    2554    6398+
+           2556    2557
CQUAD8       451       1     451    6175    6174     452    2556    6399+
+           2558    2559
CQUAD8       452       1     452    6174    6173     453    2558    6400+
+           2560    2561
CQUAD8       453       1     453    6173    6172     454    2560    6401+
+           2562    2563
CQUAD8       454       1     454    6172    6171     455    2562    6402+
+           2564    2565
CQUAD8       455       1     455    6171    6170     456    2564    6403+
+           2566    2567
CQUAD8       456       1     456    6170    6169     457    2566    6404+
+           2568    2569
CQUAD8       457       1     457    6169    6168     458    2568    6405+
+           2570    2571
CQUAD8       458       1     458    6168    6167     459    2570    6406+
+           2572    2573
CQUAD8       459       1     459    6167    6166     460    2572    6407+
+           2574    2575
CQUAD8       460       1     460    6166    6165     461    2574    6408+
+           2576    2577
CQUAD8       461       1     461    6165    6164     462    2576    6409+
+           2578    2579
CQUAD8       462       1     462    6164    6163     463    2578    6410+
+           2580    2581
CQUAD8       463       1     463    6163    6162     464    2580    6411+
+           2582    2583
CQUAD8       464       1     464    6162    6161     465    2582    6412+
+           2584    2585
CQUAD8       465       1     465    6161    6160     466    2584    6413+
+           2586    2587
CQUAD8       466       1     466    6160    6159     467    2586    6414+
+           2588    2589
CQUAD8       467       1     467    6159    6158     468    2588    6415+
+           2590    2591
CQUAD8       468       1     468    6158    6649     469    2590    6416+
+           2592    2593
CQUAD8       469       1     469    6649    5346     470    2592    5347+
+           2594    2595
CQUAD8       470       1     470    5346    5345     471    2594    5348+
+           2596    2597
CQUAD8       471       1     471    5345    5344     472    2596    5349+
+           2598    2599
CQUAD8       472       1     472    5344    5343     473    2598    5350+
+           2600    2601
CQUAD8       473       1     473    5343    5342     474    2600    5351+
+           2602    2603
CQUAD8       474       1     474    5342    5341     475    2602    5352+
+           2604    2605
CQUAD8       475       1     475    5341    5340     476    2604    5353+
+           2606    2607
CQUAD8       476       1     476    5340    5339     477    2606    5354+
+           2608    2609
CQUAD8       477       1     477    5339    5338     478    2608    5355+
+           2610    2611
CQUAD8       478       1     478    5338    5337     479    2610    5356+
+           2612    2613
CQUAD8       479       1     479    5337    5336     480    2612    5357+
+           2614    2615
CQUAD8       480       1     480    5336    5335     481    2614    5358+
+           2616    2617
CQUAD8       481       1     481    5335    5334     482    2616    5359+
+           2618    2619
CQUAD8       482       1     482    5334    5333     483    2618    5360+
+           2620    2621
CQUAD8       483       1     483    5333    5332     484    2620    5361+
+           2622    2623
CQUAD8       484       1     484    5332    5331     485    2622    5362+
+           2624    2625
CQUAD8       485       1     485    5331    5330     486    2624    5363+
+           2626    2627
CQUAD8       486       1     486    5330    5329     487    2626    5364+
+           2628    2629
CQUAD8       487       1     487    5329    5328     488    2628    5365+
+           2630    2631
CQUAD8       488       1     488    5328    5327     489    2630    5366+
+           2632    2633
CQUAD8       489       1     489    5327    5326     490    2632    5367+
+           2634    2635
CQUAD8       490       1     490    5326    5325     491    2634    5368+
+           2636    2637
CQUAD8       491       1     491    5325    5324     492    2636    5369+
+           2638    2639
CQUAD8       492       1     492    5324    5323     493    2638    5370+
+           2640    2641
CQUAD8       493       1     493    5323    5322     494    2640    5371+
+           2642    2643
CQUAD8       494       1     494    5322    5321     495    2642    5372+
+           2644    2645
CQUAD8       495       1     495    5321    5320     496    2644    5373+
+           2646    2647
CQUAD8       496       1     496    5320    5319     497    2646    5374+
+           2648    2649
CQUAD8       497       1     497    5319    5318     498    2648    5375+
+           2650    2651
CQUAD8       498       1     498    5318    5317     499    2650    5376+
+           2652    2653
CQUAD8       499       1     499    5317    5316     500    2652    5377+
+           2654    2655
CQUAD8       500       1     500    5316    5315     501    2654    5378+
+           2656    2657
CQUAD8       501       1     501    5315    5314     502    2656    5379+
+           2658    2659
CQUAD8       502       1     502    5314    5313     503    2658    5380+
+           2660    2661
CQUAD8       503       1     503    5313    5312     504    2660    5381+
+           2662    2663
CQUAD8       504       1     504    5312    5311     505    2662    5382+
+           2664    2665
CQUAD8       505       1     505    5311    5310     506    2664    5383+
+           2666    2667
CQUAD8       506       1     506    5310    6648     507    2666    5384+
+           2668    2669
CQUAD8       507       1     507    6648    5669     508    2668    5670+
+           2670    2671
CQUAD8       508       1     508    5669    5668     509    2670    5671+
+           2672    2673
CQUAD8       509       1     509    5668    5667     510    2672    5672+
+           2674    2675
CQUAD8       510       1     510    5667    5666     511    2674    5673+
+           2676    2677
CQUAD8       511       1     511    5666    5665     512    2676    5674+
+           2678    2679
CQUAD8       512       1     512    5665    5664     513    2678    5675+
+           2680    2681
CQUAD8       513       1     513    5664    5663     514    2680    5676+
+           2682    2683
CQUAD8       514       1     514    5663    5662     515    2682    5677+
+           2684    2685
CQUAD8       515       1     515    5662    5661     516    2684    5678+
+           2686    2687
CQUAD8       516       1     516    5661    5660     517    2686    5679+
+           2688    2689
CQUAD8       517       1     517    5660    5659     518    2688    5680+
+           2690    2691
CQUAD8       518       1     518    5659    5658     519    2690    5681+
+           2692    2693
CQUAD8       519       1     519    5658    5657     520    2692    5682+
+           2694    2695
CQUAD8       520       1     520    5657    5656     521    2694    5683+
+           2696    2697
CQUAD8       521       1     521    5656    5655     522    2696    5684+
+           2698    2699
CQUAD8       522       1     522    5655    5654     523    2698    5685+
+           2700    2701
CQUAD8       523       1     523    5654    5653     524    2700    5686+
+           2702    2703
CQUAD8       524       1     524    5653    5652     525    2702    5687+
+           2704    2705
CQUAD8       525       1     525    5652    5651     526    2704    5688+
+           2706    2707
CQUAD8       526       1     526    5651    5650     527    2706    5689+
+           2708    2709
CQUAD8       527       1     527    5650    5649     528    2708    5690+
+           2710    2711
CQUAD8       528       1     528    5649    5648     529    2710    5691+
+           2712    2713
CQUAD8       529       1     529    5648    5647     530    2712    5692+
+           2714    2715
CQUAD8       530       1     530    5647    5646     531    2714    5693+
+           2716    2717
CQUAD8       531       1     531    5646    5645     532    2716    5694+
+           2718    2719
CQUAD8       532       1     532    5645    5644     533    2718    5695+
+           2720    2721
CQUAD8       533       1     533    5644    5643     534    2720    5696+
+           2722    2723
CQUAD8       534       1     534    5643    5642     535    2722    5697+
+           2724    2725
CQUAD8       535       1     535    5642    5641     536    2724    5698+
+           2726    2727
CQUAD8       536       1     536    5641    5640     537    2726    5699+
+           2728    2729
CQUAD8       537       1     537    5640    5639     538    2728    5700+
+           2730    2731
CQUAD8       538       1     538    5639    5638     539    2730    5701+
+           2732    2733
CQUAD8       539       1     539    5638    5637     540    2732    5702+
+           2734    2735
CQUAD8       540       1     540    5637    5636     541    2734    5703+
+           2736    2737
CQUAD8       541       1     541    5636    5635     542    2736    5704+
+           2738    2739
CQUAD8       542       1     542    5635    5634     543    2738    5705+
+           2740    2741
CQUAD8       543       1     543    5634    5633     544    2740    5706+
+           2742    2743
CQUAD8       544       1     544    5633    5632     545    2742    5707+
+           2744    2745
CQUAD8       545       1     545    5632    5631     546    2744    5708+
+           2746    2747
CQUAD8       546       1     546    5631    5630     547    2746    5709+
+           2748    2749
CQUAD8       547       1     547    5630    5629     548    2748    5710+
+           2750    2751
CQUAD8       548       1     548    5629    5628     549    2750    5711+
+           2752    2753
CQUAD8       549       1     549    5628    5627     550    2752    5712+
+           2754    2755
CQUAD8       550       1     550    5627    5626     551    2754    5713+
+           2756    2757
CQUAD8       551       1     551    5626    5625     552    2756    5714+
+           2758    2759
CQUAD8       552       1     552    5625    5624     553    2758    5715+
+           2760    2761
CQUAD8       553       1     553    5624    5623     554    2760    5716+
+           2762    2763
CQUAD8       554       1     554    5623    5622     555    2762    5717+
+           2764    2765
CQUAD8       555       1     555    5622    5621     556    2764    5718+
+           2766    2767
CQUAD8       556       1     556    5621    5620     557    2766    5719+
+           2768    2769
CQUAD8       557       1     557    5620    5619     558    2768    5720+
+           2770    2771
CQUAD8       558       1     558    5619    5618     559    2770    5721+
+           2772    2773
CQUAD8       559       1     559    5618    5617     560    2772    5722+
+           2774    2775
CQUAD8       560       1     560    5617    5616     561    2774    5723+
+           2776    2777
CQUAD8       561       1     561    5616    5615     562    2776    5724+
+           2778    2779
CQUAD8       562       1     562    5615    5614     563    2778    5725+
+           2780    2781
CQUAD8       563       1     563    5614    5613     564    2780    5726+
+           2782    2783
CQUAD8       564       1     564    5613    5612     565    2782    5727+
+           2784    2785
CQUAD8       565       1     565    5612    5611     566    2784    5728+
+           2786    2787
CQUAD8       566       1     566    5611    5610     567    2786    5729+
+           2788    2789
CQUAD8       567       1     567    5610    5609     568    2788    5730+
+           2790    2791
CQUAD8       568       1     568    5609    5608     569    2790    5731+
+           2792    2793
CQUAD8       569       1     569    5608    5607     570    2792    5732+
+           2794    2795
CQUAD8       570       1     570    5607    5606     571    2794    5733+
+           2796    2797
CQUAD8       571       1     571    5606    5605     572    2796    5734+
+           2798    2799
CQUAD8       572       1     572    5605    5604     573    2798    5735+
+           2800    2801
CQUAD8       573       1     573    5604    5603     574    2800    5736+
+           2802    2803
CQUAD8       574       1     574    5603    5602     575    2802    5737+
+           2804    2805
CQUAD8       575       1     575    5602    5601     576    2804    5738+
+           2806    2807
CQUAD8       576       1     576    5601    5600     577    2806    5739+
+           2808    2809
CQUAD8       577       1     577    5600    5599     578    2808    5740+
+           2810    2811
CQUAD8       578       1     578    5599    5598     579    2810    5741+
+           2812    2813
CQUAD8       579       1     579    5598    5597     580    2812    5742+
+           2814    2815
CQUAD8       580       1     580    5597    5596     581    2814    5743+
+           2816    2817
CQUAD8       581       1     581    5596    5595     582    2816    5744+
+           2818    2819
CQUAD8       582       1     582    5595    5594     583    2818    5745+
+           2820    2821
CQUAD8       583       1     583    5594    5593     584    2820    5746+
+           2822    2823
CQUAD8       584       1     584    5593    5592     585    2822    5747+
+           2824    2825
CQUAD8       585       1     585    5592    5591     586    2824    5748+
+           2826    2827
CQUAD8       586       1     586    5591    5590     587    2826    5749+
+           2828    2829
CQUAD8       587       1     587    5590    5589     588    2828    5750+
+           2830    2831
CQUAD8       588       1     588    5589    5588     589    2830    5751+
+           2832    2833
CQUAD8       589       1     589    5588    5587     590    2832    5752+
+           2834    2835
CQUAD8       590       1     590    5587    5586     591    2834    5753+
+           2836    2837
CQUAD8       591       1     591    5586    5585     592    2836    5754+
+           2838    2839
CQUAD8       592       1     592    5585    5584     593    2838    5755+
+           2840    2841
CQUAD8       593       1     593    5584    5583     594    2840    5756+
+           2842    2843
CQUAD8       594       1     594    5583    5582     595    2842    5757+
+           2844    2845
CQUAD8       595       1     595    5582    5581     596    2844    5758+
+           2846    2847
CQUAD8       596       1     596    5581    5580     597    2846    5759+
+           2848    2849
CQUAD8       597       1     597    5580    5579     598    2848    5760+
+           2850    2851
CQUAD8       598       1     598    5579    5578     599    2850    5761+
+           2852    2853
CQUAD8       599       1     599    5578    5577     600    2852    5762+
+           2854    2855
CQUAD8       600       1     600    5577    5576     601    2854    5763+
+           2856    2857
CQUAD8       601       1     601    5576    5575     602    2856    5764+
+           2858    2859
CQUAD8       602       1     602    5575    5574     603    2858    5765+
+           2860    2861
CQUAD8       603       1     603    5574    5573     604    2860    5766+
+           2862    2863
CQUAD8       604       1     604    5573    5572     605    2862    5767+
+           2864    2865
CQUAD8       605       1     605    5572    5571     606    2864    5768+
+           2866    2867
CQUAD8       606       1     606    5571    5570     607    2866    5769+
+           2868    2869
CQUAD8       607       1     607    5570    5569     608    2868    5770+
+           2870    2871
CQUAD8       608       1     608    5569    5568     609    2870    5771+
+           2872    2873
CQUAD8       609       1     609    5568    5567     610    2872    5772+
+           2874    2875
CQUAD8       610       1     610    5567    5566     611    2874    5773+
+           2876    2877
CQUAD8       611       1     611    5566    5565     612    2876    5774+
+           2878    2879
CQUAD8       612       1     612    5565    5564     613    2878    5775+
+           2880    2881
CQUAD8       613       1     613    5564    5563     614    2880    5776+
+           2882    2883
CQUAD8       614       1     614    5563    5562     615    2882    5777+
+           2884    2885
CQUAD8       615       1     615    5562    5561     616    2884    5778+
+           2886    2887
CQUAD8       616       1     616    5561    5560     617    2886    5779+
+           2888    2889
CQUAD8       617       1     617    5560    5559     618    2888    5780+
+           2890    2891
CQUAD8       618       1     618    5559    5558     619    2890    5781+
+           2892    2893
CQUAD8       619       1     619    5558    5557     620    2892    5782+
+           2894    2895
CQUAD8       620       1     620    5557    5556     621    2894    5783+
+           2896    2897
CQUAD8       621       1     621    5556    5555     622    2896    5784+
+           2898    2899
CQUAD8       622       1     622    5555    5554     623    2898    5785+
+           2900    2901
CQUAD8       623       1     623    5554    5553     624    2900    5786+
+           2902    2903
CQUAD8       624       1     624    5553    5552     625    2902    5787+
+           2904    2905
CQUAD8       625       1     625    5552    5551     626    2904    5788+
+           2906    2907
CQUAD8       626       1     626    5551    5550     627    2906    5789+
+           2908    2909
CQUAD8       627       1     627    5550    5549     628    2908    5790+
+           2910    2911
CQUAD8       628       1     628    5549    5548     629    2910    5791+
+           2912    2913
CQUAD8       629       1     629    5548    5547     630    2912    5792+
+           2914    2915
CQUAD8       630       1     630    5547    5546     631    2914    5793+
+           2916    2917
CQUAD8       631       1     631    5546    5545     632    2916    5794+
+           2918    2919
CQUAD8       632       1     632    5545    5544     633    2918    5795+
+           2920    2921
CQUAD8       633       1     633    5544    5543     634    2920    5796+
+           2922    2923
CQUAD8       634       1     634    5543    5542     635    2922    5797+
+           2924    2925
CQUAD8       635       1     635    5542    5541     636    2924    5798+
+           2926    2927
CQUAD8       636       1     636    5541    6653     637    2926    5799+
+           2928    2929
CQUAD8       637       1     637    6653    6609     638    2928    6610+
+           2930    2931
CQUAD8       638       1     638    6609    6608     639    2930    6611+
+           2932    2933
CQUAD8       639       1     639    6608    6607     640    2932    6612+
+           2934    2935
CQUAD8       640       1     640    6607    6606     641    2934    6613+
+           2936    2937
CQUAD8       641       1     641    6606    6605     642    2936    6614+
+           2938    2939
CQUAD8       642       1     642    6605    6604     643    2938    6615+
+           2940    2941
CQUAD8       643       1     643    6604    6603     644    2940    6616+
+           2942    2943
CQUAD8       644       1     644    6603    6602     645    2942    6617+
+           2944    2945
CQUAD8       645       1     645    6602    6601     646    2944    6618+
+           2946    2947
CQUAD8       646       1     646    6601    6600     647    2946    6619+
+           2948    2949
CQUAD8       647       1     647    6600    6599     648    2948    6620+
+           2950    2951
CQUAD8       648       1     648    6599    6598     649    2950    6621+
+           2952    2953
CQUAD8       649       1     649    6598    6597     650    2952    6622+
+           2954    2955
CQUAD8       650       1     650    6597    6596     651    2954    6623+
+           2956    2957
CQUAD8       651       1     651    6596    6595     652    2956    6624+
+           2958    2959
CQUAD8       652       1     652    6595    6594     653    2958    6625+
+           2960    2961
CQUAD8       653       1     653    6594    6593     654    2960    6626+
+           2962    2963
CQUAD8       654       1     654    6593    6592     655    2962    6627+
+           2964    2965
CQUAD8       655       1     655    6592    6591     656    2964    6628+
+           2966    2967
CQUAD8       656       1     656    6591    6590     657    2966    6629+
+           2968    2969
CQUAD8       657       1     657    6590    6589     658    2968    6630+
+           2970    2971
CQUAD8       658       1     658    6589    6588     659    2970    6631+
+           2972    2973
CQUAD8       659       1     659    6588    6587     660    2972    6632+
+           2974    2975
CQUAD8       660       1     660    6587    6586     661    2974    6633+
+           2976    2977
CQUAD8       661       1     661    6586    6585     662    2976    6634+
+           2978    2979
CQUAD8       662       1     662    6585    6584     663    2978    6635+
+           2980    2981
CQUAD8       663       1     663    6584    6583     664    2980    6636+
+           2982    2983
CQUAD8       664       1     664    6583    6582     665    2982    6637+
+           2984    2985
CQUAD8       665       1     665    6582    6581     666    2984    6638+
+           2986    2987
CQUAD8       666       1     666    6581    6580     667    2986    6639+
+           2988    2989
CQUAD8       667       1     667    6580    6579     668    2988    6640+
+           2990    2991
CQUAD8       668       1     668    6579    6578     669    2990    6641+
+           2992    2993
CQUAD8       669       1     669    6578    6577     670    2992    6642+
+           2994    2995
CQUAD8       670       1     670    6577    6576     671    2994    6643+
+           2996    2997
CQUAD8       671       1     671    6576    6575     672    2996    6644+
+           2998    2999
CQUAD8       672       1     672    6575    6574     673    2998    6645+
+           3000    3001
CQUAD8       673       1     673    6574    6573     674    3000    6646+
+           3002    3003
CQUAD8       674       1     674    6573    6656     339    3002    6647+
+           2333    3004
CQUAD8       675       1     675     225     226     676    3005    2107+
+           3006    3007
CQUAD8       676       1     676     226     227     677    3006    2109+
+           3008    3009
CQUAD8       677       1     677     227     228     678    3008    2111+
+           3010    3011
CQUAD8       678       1     678     228     229     679    3010    2113+
+           3012    3013
CQUAD8       679       1     679     229     230     680    3012    2115+
+           3014    3015
CQUAD8       680       1     680     230     231     681    3014    2117+
+           3016    3017
CQUAD8       681       1     681     231     232     682    3016    2119+
+           3018    3019
CQUAD8       682       1     682     232     233     683    3018    2121+
+           3020    3021
CQUAD8       683       1     683     233     234     684    3020    2123+
+           3022    3023
CQUAD8       684       1     684     234     235     685    3022    2125+
+           3024    3025
CQUAD8       685       1     685     235     236     686    3024    2127+
+           3026    3027
CQUAD8       686       1     686     236     237     687    3026    2129+
+           3028    3029
CQUAD8       687       1     687     237     238     688    3028    2131+
+           3030    3031
CQUAD8       688       1     688     238     239     689    3030    2133+
+           3032    3033
CQUAD8       689       1     689     239     240     690    3032    2135+
+           3034    3035
CQUAD8       690       1     690     240     241     691    3034    2137+
+           3036    3037
CQUAD8       691       1     691     241     242     692    3036    2139+
+           3038    3039
CQUAD8       692       1     692     242     243     693    3038    2141+
+           3040    3041
CQUAD8       693       1     693     243     244     694    3040    2143+
+           3042    3043
CQUAD8       694       1     694     244     245     695    3042    2145+
+           3044    3045
CQUAD8       695       1     695     245     246     696    3044    2147+
+           3046    3047
CQUAD8       696       1     696     246     247     697    3046    2149+
+           3048    3049
CQUAD8       697       1     697     247     248     698    3048    2151+
+           3050    3051
CQUAD8       698       1     698     248     249     699    3050    2153+
+           3052    3053
CQUAD8       699       1     699     249     250     700    3052    2155+
+           3054    3055
CQUAD8       700       1     700     250     251     701    3054    2157+
+           3056    3057
CQUAD8       701       1     701     251     252     702    3056    2159+
+           3058    3059
CQUAD8       702       1     702     252     253     703    3058    2161+
+           3060    3061
CQUAD8       703       1     703     253     254     704    3060    2163+
+           3062    3063
CQUAD8       704       1     704     254     255     705    3062    2165+
+           3064    3065
CQUAD8       705       1     705     255     256     706    3064    2167+
+           3066    3067
CQUAD8       706       1     706     256     257     707    3066    2169+
+           3068    3069
CQUAD8       707       1     707     257     258     708    3068    2171+
+           3070    3071
CQUAD8       708       1     708     258     259     709    3070    2173+
+           3072    3073
CQUAD8       709       1     709     259     260     710    3072    2175+
+           3074    3075
CQUAD8       710       1     710     260     261     711    3074    2177+
+           3076    3077
CQUAD8       711       1     711     261     262     712    3076    2179+
+           3078    3079
CQUAD8       712       1     712     262     263     713    3078    2181+
+           3080    3081
CQUAD8       713       1     713     263     264     714    3080    2183+
+           3082    3083
CQUAD8       714       1     714     264     265     715    3082    2185+
+           3084    3085
CQUAD8       715       1     715     265     266     716    3084    2187+
+           3086    3087
CQUAD8       716       1     716     266     267     717    3086    2189+
+           3088    3089
CQUAD8       717       1     717     267     268     718    3088    2191+
+           3090    3091
CQUAD8       718       1     718     268     269     719    3090    2193+
+           3092    3093
CQUAD8       719       1     719     269     270     720    3092    2195+
+           3094    3095
CQUAD8       720       1     720     270     271     721    3094    2197+
+           3096    3097
CQUAD8       721       1     721     271     272     722    3096    2199+
+           3098    3099
CQUAD8       722       1     722     272     273     723    3098    2201+
+           3100    3101
CQUAD8       723       1     723     273     274     724    3100    2203+
+           3102    3103
CQUAD8       724       1     724     274     275     725    3102    2205+
+           3104    3105
CQUAD8       725       1     725     275     276     726    3104    2207+
+           3106    3107
CQUAD8       726       1     726     276     277     727    3106    2209+
+           3108    3109
CQUAD8       727       1     727     277     278     728    3108    2211+
+           3110    3111
CQUAD8       728       1     728     278     279     729    3110    2213+
+           3112    3113
CQUAD8       729       1     729     279     280     730    3112    2215+
+           3114    3115
CQUAD8       730       1     730     280     281     731    3114    2217+
+           3116    3117
CQUAD8       731       1     731     281     225     675    3116    2218+
+           3005    3118
CQUAD8       732       1     732     282     283     733    3119    2221+
+           3120    3121
CQUAD8       733       1     733     283     284     734    3120    2223+
+           3122    3123
CQUAD8       734       1     734     284     285     735    3122    2225+
+           3124    3125
CQUAD8       735       1     735     285     286     736    3124    2227+
+           3126    3127
CQUAD8       736       1     736     286     287     737    3126    2229+
+           3128    3129
CQUAD8       737       1     737     287     288     738    3128    2231+
+           3130    3131
CQUAD8       738       1     738     288     289     739    3130    2233+
+           3132    3133
CQUAD8       739       1     739     289     290     740    3132    2235+
+           3134    3135
CQUAD8       740       1     740     290     291     741    3134    2237+
+           3136    3137
CQUAD8       741       1     741     291     292     742    3136    2239+
+           3138    3139
CQUAD8       742       1     742     292     293     743    3138    2241+
+           3140    3141
CQUAD8       743       1     743     293     294     744    3140    2243+
+           3142    3143
CQUAD8       744       1     744     294     295     745    3142    2245+
+           3144    3145
CQUAD8       745       1     745     295     296     746    3144    2247+
+           3146    3147
CQUAD8       746       1     746     296     297     747    3146    2249+
+           3148    3149
CQUAD8       747       1     747     297     298     748    3148    2251+
+           3150    3151
CQUAD8       748       1     748     298     299     749    3150    2253+
+           3152    3153
CQUAD8       749       1     749     299     300     750    3152    2255+
+           3154    3155
CQUAD8       750       1     750     300     301     751    3154    2257+
+           3156    3157
CQUAD8       751       1     751     301     302     752    3156    2259+
+           3158    3159
CQUAD8       752       1     752     302     303     753    3158    2261+
+           3160    3161
CQUAD8       753       1     753     303     304     754    3160    2263+
+           3162    3163
CQUAD8       754       1     754     304     305     755    3162    2265+
+           3164    3165
CQUAD8       755       1     755     305     306     756    3164    2267+
+           3166    3167
CQUAD8       756       1     756     306     307     757    3166    2269+
+           3168    3169
CQUAD8       757       1     757     307     308     758    3168    2271+
+           3170    3171
CQUAD8       758       1     758     308     309     759    3170    2273+
+           3172    3173
CQUAD8       759       1     759     309     310     760    3172    2275+
+           3174    3175
CQUAD8       760       1     760     310     311     761    3174    2277+
+           3176    3177
CQUAD8       761       1     761     311     312     762    3176    2279+
+           3178    3179
CQUAD8       762       1     762     312     313     763    3178    2281+
+           3180    3181
CQUAD8       763       1     763     313     314     764    3180    2283+
+           3182    3183
CQUAD8       764       1     764     314     315     765    3182    2285+
+           3184    3185
CQUAD8       765       1     765     315     316     766    3184    2287+
+           3186    3187
CQUAD8       766       1     766     316     317     767    3186    2289+
+           3188    3189
CQUAD8       767       1     767     317     318     768    3188    2291+
+           3190    3191
CQUAD8       768       1     768     318     319     769    3190    2293+
+           3192    3193
CQUAD8       769       1     769     319     320     770    3192    2295+
+           3194    3195
CQUAD8       770       1     770     320     321     771    3194    2297+
+           3196    3197
CQUAD8       771       1     771     321     322     772    3196    2299+
+           3198    3199
CQUAD8       772       1     772     322     323     773    3198    2301+
+           3200    3201
CQUAD8       773       1     773     323     324     774    3200    2303+
+           3202    3203
CQUAD8       774       1     774     324     325     775    3202    2305+
+           3204    3205
CQUAD8       775       1     775     325     326     776    3204    2307+
+           3206    3207
CQUAD8       776       1     776     326     327     777    3206    2309+
+           3208    3209
CQUAD8       777       1     777     327     328     778    3208    2311+
+           3210    3211
CQUAD8       778       1     778     328     329     779    3210    2313+
+           3212    3213
CQUAD8       779       1     779     329     330     780    3212    2315+
+           3214    3215
CQUAD8       780       1     780     330     331     781    3214    2317+
+           3216    3217
CQUAD8       781       1     781     331     332     782    3216    2319+
+           3218    3219
CQUAD8       782       1     782     332     333     783    3218    2321+
+           3220    3221
CQUAD8       783       1     783     333     334     784    3220    2323+
+           3222    3223
CQUAD8       784       1     784     334     335     785    3222    2325+
+           3224    3225
CQUAD8       785       1     785     335     336     786    3224    2327+
+           3226    3227
CQUAD8       786       1     786     336     337     787    3226    2329+
+           3228    3229
CQUAD8       787       1     787     337     338     788    3228    2331+
+           3230    3231
CQUAD8       788       1     788     338     282     732    3230    2332+
+           3119    3232
CQUAD8       789       1     660     661     714     715    2977    3233+
+           3085    3234
CQUAD8       790       1     797     659     660     715    3235    2975+
+           3234    3236
CQUAD8       791       1     798     716     717     796    3237    3089+
+           3238    3239
CQUAD8       792       1     719     720     653     654    3095    3240+
+           2963    3241
CQUAD8       793       1     720     721     652     653    3097    3242+
+           2961    3240
CQUAD8       794       1     799     719     654     655    3243    3241+
+           2965    3244
CQUAD8       795       1     799     655     656     800    3244    2967+
+           3245    3246
CQUAD8       796       1     803     805     806     804    3247    3248+
+           3249    3250
CQUAD8       797       1     805     807     808     806    3251    3252+
+           3253    3248
CQUAD8       798       1     724     725     803     802    3105    3254+
+           3255    3256
CQUAD8       799       1     725     726     805     803    3107    3257+
+           3247    3254
CQUAD8       800       1     726     727     807     805    3109    3258+
+           3251    3257
CQUAD8       801       1     727     728     794     807    3111    3259+
+           3260    3258
CQUAD8       802       1     807     794     795     808    3260    3261+
+           3262    3252
CQUAD8       803       1     808     795     643     644    3262    3263+
+           2943    3264
CQUAD8       804       1     806     808     644     645    3253    3264+
+           2945    3265
CQUAD8       805       1     804     806     645     646    3249    3265+
+           2947    3266
CQUAD8       806       1     801     804     646     647    3267    3266+
+           2949    3268
CQUAD8       807       1     802     803     804     801    3255    3250+
+           3267    3269
CQUAD8       808       1     809     651     652     721    3270    2959+
+           3242    3271
CQUAD8       809       1     801     647     648     811    3268    2951+
+           3272    3273
CQUAD8       810       1     812     722     723     810    3274    3101+
+           3275    3276
CQUAD8       811       1     740     741     495     496    3137    3277+
+           2647    3278
CQUAD8       812       1     815     740     496     497    3279    3278+
+           2649    3280
CQUAD8       813       1     815     497     498     816    3280    2651+
+           3281    3282
CQUAD8       814       1     502     503     735     736    2661    3283+
+           3127    3284
CQUAD8       815       1     817     501     502     736    3285    2659+
+           3284    3286
CQUAD8       816       1     818     737     738     814    3287    3131+
+           3288    3289
CQUAD8       817       1     507     508     820     819    2671    3290+
+           3291    3292
CQUAD8       818       1     508     509     821     820    2673    3293+
+           3294    3290
CQUAD8       819       1     509     510     813     821    2675    3295+
+           3296    3293
CQUAD8       820       1     821     813     786     787    3296    3297+
+           3229    3298
CQUAD8       821       1     820     821     787     788    3294    3298+
+           3231    3299
CQUAD8       822       1     819     820     788     732    3291    3299+
+           3232    3300
CQUAD8       823       1     734     735     503     504    3125    3283+
+           2663    3301
CQUAD8       824       1     822     734     504     505    3302    3301+
+           2665    3303
CQUAD8       825       1     822     505     506     823    3303    2667+
+           3304    3305
CQUAD8       826       1     825     731     638     639    3306    3307+
+           2933    3308
CQUAD8       827       1     827     642     643     795    3309    2941+
+           3263    3310
CQUAD8       828       1     825     639     640     828    3308    2935+
+           3311    3312
CQUAD8       829       1     829     635     636     676    3313    2927+
+           3314    3315
CQUAD8       830       1     824     634     635     829    3316    2925+
+           3313    3317
CQUAD8       831       1     636     637     675     676    2929    3318+
+           3007    3314
CQUAD8       832       1     637     638     731     675    2931    3307+
+           3118    3318
CQUAD8       833       1     833     832     207     208    3319    3320+
+           2071    3321
CQUAD8       834       1     833     208     209     834    3321    2073+
+           3322    3323
CQUAD8       835       1     834     209     210     835    3322    2075+
+           3324    3325
CQUAD8       836       1     835     210     211     836    3324    2077+
+           3326    3327
CQUAD8       837       1     836     211     212     837    3326    2079+
+           3328    3329
CQUAD8       838       1     837     212     213     838    3328    2081+
+           3330    3331
CQUAD8       839       1     838     213     214     789    3330    2083+
+           3332    3333
CQUAD8       840       1     838     789     775     776    3333    3334+
+           3207    3335
CQUAD8       841       1     838     776     777     839    3335    3209+
+           3336    3337
CQUAD8       842       1     839     777     778     840    3336    3211+
+           3338    3339
CQUAD8       843       1     840     778     779     841    3338    3213+
+           3340    3341
CQUAD8       844       1     841     779     780     842    3340    3215+
+           3342    3343
CQUAD8       845       1     842     780     781     843    3342    3217+
+           3344    3345
CQUAD8       846       1     843     781     782     844    3344    3219+
+           3346    3347
CQUAD8       847       1     844     782     783     845    3346    3221+
+           3348    3349
CQUAD8       848       1     845     783     784     846    3348    3223+
+           3350    3351
CQUAD8       849       1     846     784     785     847    3350    3225+
+           3352    3353
CQUAD8       850       1     847     785     786     813    3352    3227+
+           3297    3354
CQUAD8       851       1     847     813     510     511    3354    3295+
+           2677    3355
CQUAD8       852       1     847     511     512     848    3355    2679+
+           3356    3357
CQUAD8       853       1     848     512     513     849    3356    2681+
+           3358    3359
CQUAD8       854       1     849     513     514     850    3358    2683+
+           3360    3361
CQUAD8       855       1     850     514     515     851    3360    2685+
+           3362    3363
CQUAD8       856       1     851     515     516     852    3362    2687+
+           3364    3365
CQUAD8       857       1     852     516     517     853    3364    2689+
+           3366    3367
CQUAD8       858       1     853     517     518     854    3366    2691+
+           3368    3369
CQUAD8       859       1     854     518     519     855    3368    2693+
+           3370    3371
CQUAD8       860       1     855     519     520     856    3370    2695+
+           3372    3373
CQUAD8       861       1     856     520     521     857    3372    2697+
+           3374    3375
CQUAD8       862       1     857     521     522     830    3374    2699+
+           3376    3377
CQUAD8       863       1     857     830     831     858    3377    3378+
+           3379    3380
CQUAD8       864       1     858     831     832     833    3379    3381+
+           3319    3382
CQUAD8       865       1     846     847     848     867    3353    3357+
+           3383    3384
CQUAD8       866       1     846     867     866     845    3384    3385+
+           3386    3351
CQUAD8       867       1     864     844     845     866    3387    3349+
+           3386    3388
CQUAD8       868       1     873     856     857     858    3389    3375+
+           3380    3390
CQUAD8       869       1     873     858     859     872    3390    3391+
+           3392    3393
CQUAD8       870       1     860     870     872     859    3394    3395+
+           3392    3396
CQUAD8       871       1     870     871     873     872    3397    3398+
+           3393    3395
CQUAD8       872       1     871     855     856     873    3399    3373+
+           3389    3398
CQUAD8       873       1     860     861     874     870    3400    3401+
+           3402    3394
CQUAD8       874       1     861     862     868     874    3403    3404+
+           3405    3401
CQUAD8       875       1     874     868     869     875    3405    3406+
+           3407    3408
CQUAD8       876       1     875     869     853     854    3407    3409+
+           3369    3410
CQUAD8       877       1     871     875     854     855    3411    3410+
+           3371    3399
CQUAD8       878       1     870     874     875     871    3402    3408+
+           3411    3397
CQUAD8       879       1     863     842     843     876    3412    3345+
+           3413    3414
CQUAD8       880       1     877     868     862     863    3415    3404+
+           3416    3417
CQUAD8       881       1     879     851     852     878    3418    3365+
+           3419    3420
CQUAD8       882       1     880     859     858     833    3421    3391+
+           3382    3422
CQUAD8       883       1     880     833     834     881    3422    3323+
+           3423    3424
CQUAD8       884       1     881     834     835     882    3423    3325+
+           3425    3426
CQUAD8       885       1     882     835     836     883    3425    3327+
+           3427    3428
CQUAD8       886       1     883     836     837     884    3427    3329+
+           3429    3430
CQUAD8       887       1     884     837     838     839    3429    3331+
+           3337    3431
CQUAD8       888       1     884     839     840     885    3431    3339+
+           3432    3433
CQUAD8       889       1     885     840     841     886    3432    3341+
+           3434    3435
CQUAD8       890       1     886     841     842     863    3434    3343+
+           3412    3436
CQUAD8       891       1     886     863     862     887    3436    3416+
+           3437    3438
CQUAD8       892       1     887     862     861     888    3437    3403+
+           3439    3440
CQUAD8       893       1     887     888     881     882    3440    3441+
+           3426    3442
CQUAD8       894       1     883     884     885     889    3430    3433+
+           3443    3444
CQUAD8       895       1     885     886     887     889    3435    3438+
+           3445    3443
CQUAD8       896       1     883     889     887     882    3444    3445+
+           3442    3428
CQUAD8       897       1     824     897     633     634    3446    3447+
+           2923    3316
CQUAD8       898       1     899     898     894     895    3448    3449+
+           3450    3451
CQUAD8       899       1     899     895     630     631    3451    3452+
+           2917    3453
CQUAD8       900       1     900     680     681     893    3454    3017+
+           3455    3456
CQUAD8       901       1     900     893     894     898    3456    3457+
+           3449    3458
CQUAD8       902       1     901     893     681     682    3459    3455+
+           3019    3460
CQUAD8       903       1     901     682     683     902    3460    3021+
+           3461    3462
CQUAD8       904       1     902     683     684     903    3461    3023+
+           3463    3464
CQUAD8       905       1     903     684     685     790    3463    3025+
+           3465    3466
CQUAD8       906       1     903     790     791     904    3466    3467+
+           3468    3469
CQUAD8       907       1     904     791     792     905    3468    3470+
+           3471    3472
CQUAD8       908       1     905     792     793     906    3471    3473+
+           3474    3475
CQUAD8       909       1     906     793     106     907    3474    3476+
+           3477    3478
CQUAD8       910       1     907     106     107     908    3477    1869+
+           3479    3480
CQUAD8       911       1     908     107     108     909    3479    1871+
+           3481    3482
CQUAD8       912       1     909     108     109     910    3481    1873+
+           3483    3484
CQUAD8       913       1     910     109     110     911    3483    1875+
+           3485    3486
CQUAD8       914       1     911     110     111     890    3485    1877+
+           3487    3488
CQUAD8       915       1     911     890     891     912    3488    3489+
+           3490    3491
CQUAD8       916       1     912     891     892     913    3490    3492+
+           3493    3494
CQUAD8       917       1     913     892     620     621    3493    3495+
+           2897    3496
CQUAD8       918       1     913     621     622     914    3496    2899+
+           3497    3498
CQUAD8       919       1     914     622     623     915    3497    2901+
+           3499    3500
CQUAD8       920       1     915     623     624     916    3499    2903+
+           3501    3502
CQUAD8       921       1     916     624     625     917    3501    2905+
+           3503    3504
CQUAD8       922       1     917     625     626     918    3503    2907+
+           3505    3506
CQUAD8       923       1     918     626     627     919    3505    2909+
+           3507    3508
CQUAD8       924       1     919     627     628     920    3507    2911+
+           3509    3510
CQUAD8       925       1     920     628     629     921    3509    2913+
+           3511    3512
CQUAD8       926       1     921     629     630     895    3511    2915+
+           3452    3513
CQUAD8       927       1     921     895     894     922    3513    3450+
+           3514    3515
CQUAD8       928       1     922     894     893     901    3514    3457+
+           3459    3516
CQUAD8       929       1     923     922     901     902    3517    3516+
+           3462    3518
CQUAD8       930       1     923     902     903     924    3518    3464+
+           3519    3520
CQUAD8       931       1     924     903     904     925    3519    3469+
+           3521    3522
CQUAD8       932       1     925     904     905     926    3521    3472+
+           3523    3524
CQUAD8       933       1     926     905     906     927    3523    3475+
+           3525    3526
CQUAD8       934       1     927     906     907     928    3525    3478+
+           3527    3528
CQUAD8       935       1     928     907     908     929    3527    3480+
+           3529    3530
CQUAD8       936       1     929     908     909     930    3529    3482+
+           3531    3532
CQUAD8       937       1     930     909     910     931    3531    3484+
+           3533    3534
CQUAD8       938       1     931     910     911     912    3533    3486+
+           3491    3535
CQUAD8       939       1     931     912     913     914    3535    3494+
+           3498    3536
CQUAD8       940       1     931     914     915     932    3536    3500+
+           3537    3538
CQUAD8       941       1     932     915     916     933    3537    3502+
+           3539    3540
CQUAD8       942       1     933     916     917     934    3539    3504+
+           3541    3542
CQUAD8       943       1     934     917     918     935    3541    3506+
+           3543    3544
CQUAD8       944       1     935     918     919     936    3543    3508+
+           3545    3546
CQUAD8       945       1     936     919     920     923    3545    3510+
+           3547    3548
CQUAD8       946       1     923     920     921     922    3547    3512+
+           3515    3517
CQUAD8       947       1     938     927     928     940    3549    3528+
+           3550    3551
CQUAD8       948       1     938     940     939     937    3551    3552+
+           3553    3554
CQUAD8       949       1     933     934     937     939    3542    3555+
+           3553    3556
CQUAD8       950       1     930     931     932     941    3534    3538+
+           3557    3558
CQUAD8       951       1     932     933     939     941    3540    3556+
+           3559    3557
CQUAD8       952       1     945     936     923     924    3560    3548+
+           3520    3561
CQUAD8       953       1     945     924     925     944    3561    3522+
+           3562    3563
CQUAD8       954       1     926     942     944     925    3564    3565+
+           3562    3524
CQUAD8       955       1     942     943     945     944    3566    3567+
+           3563    3565
CQUAD8       956       1     943     935     936     945    3568    3546+
+           3560    3567
CQUAD8       957       1     927     938     942     926    3549    3569+
+           3564    3526
CQUAD8       958       1     938     937     943     942    3554    3570+
+           3566    3569
CQUAD8       959       1     937     934     935     943    3555    3544+
+           3568    3570
CQUAD8       960       1     946     890     111     112    3571    3487+
+           1879    3572
CQUAD8       961       1     946     112     113     947    3572    1881+
+           3573    3574
CQUAD8       962       1     947     113     114     948    3573    1883+
+           3575    3576
CQUAD8       963       1     948     114     115     949    3575    1885+
+           3577    3578
CQUAD8       964       1     949     115     116     950    3577    1887+
+           3579    3580
CQUAD8       965       1     950     116     117     951    3579    1889+
+           3581    3582
CQUAD8       966       1     951     117     118     952    3581    1891+
+           3583    3584
CQUAD8       967       1     952     118     119     953    3583    1893+
+           3585    3586
CQUAD8       968       1     953     119     120     954    3585    1895+
+           3587    3588
CQUAD8       969       1     954     120     121     955    3587    1897+
+           3589    3590
CQUAD8       970       1     955     121     122     956    3589    1899+
+           3591    3592
CQUAD8       971       1     956     122     123     957    3591    1901+
+           3593    3594
CQUAD8       972       1     957     123     124     958    3593    1903+
+           3595    3596
CQUAD8       973       1     958     124     125     959    3595    1905+
+           3597    3598
CQUAD8       974       1     959     125     126     960    3597    1907+
+           3599    3600
CQUAD8       975       1     960     126     127     961    3599    1909+
+           3601    3602
CQUAD8       976       1     961     127     128     962    3601    1911+
+           3603    3604
CQUAD8       977       1     962     128     129     963    3603    1913+
+           3605    3606
CQUAD8       978       1     963     129     130     964    3605    1915+
+           3607    3608
CQUAD8       979       1     964     130     131     965    3607    1917+
+           3609    3610
CQUAD8       980       1     965     131     132     966    3609    1919+
+           3611    3612
CQUAD8       981       1     966     132     133     967    3611    1921+
+           3613    3614
CQUAD8       982       1     967     133     134     968    3613    1923+
+           3615    3616
CQUAD8       983       1     968     134     135     969    3615    1925+
+           3617    3618
CQUAD8       984       1     969     135     136     970    3617    1927+
+           3619    3620
CQUAD8       985       1     970     136     137     971    3619    1929+
+           3621    3622
CQUAD8       986       1     971     137     138     972    3621    1931+
+           3623    3624
CQUAD8       987       1     972     138     139     973    3623    1933+
+           3625    3626
CQUAD8       988       1     973     139     140     974    3625    1935+
+           3627    3628
CQUAD8       989       1     974     140     141     975    3627    1937+
+           3629    3630
CQUAD8       990       1     975     141     142     976    3629    1939+
+           3631    3632
CQUAD8       991       1     976     142     143     977    3631    1941+
+           3633    3634
CQUAD8       992       1     977     143     144     978    3633    1943+
+           3635    3636
CQUAD8       993       1     978     144     145     979    3635    1945+
+           3637    3638
CQUAD8       994       1     979     145     146     980    3637    1947+
+           3639    3640
CQUAD8       995       1     980     146     147     981    3639    1949+
+           3641    3642
CQUAD8       996       1     981     147     148     982    3641    1951+
+           3643    3644
CQUAD8       997       1     982     148     149     983    3643    1953+
+           3645    3646
CQUAD8       998       1     983     149     150     984    3645    1955+
+           3647    3648
CQUAD8       999       1     984     150     151     985    3647    1957+
+           3649    3650
CQUAD8      1000       1     985     151     152     986    3649    1959+
+           3651    3652
CQUAD8      1001       1     986     152     153     987    3651    1961+
+           3653    3654
CQUAD8      1002       1     987     153     154     988    3653    1963+
+           3655    3656
CQUAD8      1003       1     988     154     155     989    3655    1965+
+           3657    3658
CQUAD8      1004       1     989     155     156     990    3657    1967+
+           3659    3660
CQUAD8      1005       1     990     156     157     991    3659    1969+
+           3661    3662
CQUAD8      1006       1     991     157     158     992    3661    1971+
+           3663    3664
CQUAD8      1007       1     992     158     159     993    3663    1973+
+           3665    3666
CQUAD8      1008       1     993     159     160     994    3665    1975+
+           3667    3668
CQUAD8      1009       1     994     160     161     995    3667    1977+
+           3669    3670
CQUAD8      1010       1     995     161     162     996    3669    1979+
+           3671    3672
CQUAD8      1011       1     996     162     163     997    3671    1981+
+           3673    3674
CQUAD8      1012       1     997     163     164     998    3673    1983+
+           3675    3676
CQUAD8      1013       1     998     164     165     999    3675    1985+
+           3677    3678
CQUAD8      1014       1     999     165     166    1000    3677    1987+
+           3679    3680
CQUAD8      1015       1    1000     166     167    1001    3679    1989+
+           3681    3682
CQUAD8      1016       1    1001     167     168    1002    3681    1991+
+           3683    3684
CQUAD8      1017       1    1002     168     169    1003    3683    1993+
+           3685    3686
CQUAD8      1018       1    1003     169     170    1004    3685    1995+
+           3687    3688
CQUAD8      1019       1    1004     170     171    1005    3687    1997+
+           3689    3690
CQUAD8      1020       1    1005     171     172    1006    3689    1999+
+           3691    3692
CQUAD8      1021       1    1006     172     173    1007    3691    2001+
+           3693    3694
CQUAD8      1022       1    1007     173     174    1008    3693    2003+
+           3695    3696
CQUAD8      1023       1    1008     174     175    1009    3695    2005+
+           3697    3698
CQUAD8      1024       1    1009     175     176    1010    3697    2007+
+           3699    3700
CQUAD8      1025       1    1010     176     177    1011    3699    2009+
+           3701    3702
CQUAD8      1026       1    1011     177     178    1012    3701    2011+
+           3703    3704
CQUAD8      1027       1    1012     178     179    1013    3703    2013+
+           3705    3706
CQUAD8      1028       1    1013     179     180    1014    3705    2015+
+           3707    3708
CQUAD8      1029       1    1014     180     181    1015    3707    2017+
+           3709    3710
CQUAD8      1030       1    1015     181     182    1016    3709    2019+
+           3711    3712
CQUAD8      1031       1    1016     182     183    1017    3711    2021+
+           3713    3714
CQUAD8      1032       1    1017     183     184    1018    3713    2023+
+           3715    3716
CQUAD8      1033       1    1018     184     185    1019    3715    2025+
+           3717    3718
CQUAD8      1034       1    1019     185     186    1020    3717    2027+
+           3719    3720
CQUAD8      1035       1    1020     186     187    1021    3719    2029+
+           3721    3722
CQUAD8      1036       1    1021     187     188    1022    3721    2031+
+           3723    3724
CQUAD8      1037       1    1022     188     189    1023    3723    2033+
+           3725    3726
CQUAD8      1038       1    1023     189     190    1024    3725    2035+
+           3727    3728
CQUAD8      1039       1    1024     190     191    1025    3727    2037+
+           3729    3730
CQUAD8      1040       1    1025     191     192    1026    3729    2039+
+           3731    3732
CQUAD8      1041       1    1026     192     193    1027    3731    2041+
+           3733    3734
CQUAD8      1042       1    1027     193     194    1028    3733    2043+
+           3735    3736
CQUAD8      1043       1    1028     194     195    1029    3735    2045+
+           3737    3738
CQUAD8      1044       1    1029     195     196    1030    3737    2047+
+           3739    3740
CQUAD8      1045       1    1030     196     197    1031    3739    2049+
+           3741    3742
CQUAD8      1046       1    1031     197     198    1032    3741    2051+
+           3743    3744
CQUAD8      1047       1    1032     198     199    1033    3743    2053+
+           3745    3746
CQUAD8      1048       1    1033     199     200    1034    3745    2055+
+           3747    3748
CQUAD8      1049       1    1034     200     201    1035    3747    2057+
+           3749    3750
CQUAD8      1050       1    1035     201     202    1036    3749    2059+
+           3751    3752
CQUAD8      1051       1    1036     202     203    1037    3751    2061+
+           3753    3754
CQUAD8      1052       1    1037     203     204    1038    3753    2063+
+           3755    3756
CQUAD8      1053       1    1038     204     205    1039    3755    2065+
+           3757    3758
CQUAD8      1054       1    1039     205     206    1040    3757    2067+
+           3759    3760
CQUAD8      1055       1    1040     206     207     832    3759    2069+
+           3320    3761
CQUAD8      1056       1    1040     832     831    1041    3761    3381+
+           3762    3763
CQUAD8      1057       1    1041     831     830    1042    3762    3378+
+           3764    3765
CQUAD8      1058       1    1042     830     522     523    3764    3376+
+           2701    3766
CQUAD8      1059       1    1042     523     524    1043    3766    2703+
+           3767    3768
CQUAD8      1060       1    1043     524     525    1044    3767    2705+
+           3769    3770
CQUAD8      1061       1    1044     525     526    1045    3769    2707+
+           3771    3772
CQUAD8      1062       1    1045     526     527    1046    3771    2709+
+           3773    3774
CQUAD8      1063       1    1046     527     528    1047    3773    2711+
+           3775    3776
CQUAD8      1064       1    1047     528     529    1048    3775    2713+
+           3777    3778
CQUAD8      1065       1    1048     529     530    1049    3777    2715+
+           3779    3780
CQUAD8      1066       1    1049     530     531    1050    3779    2717+
+           3781    3782
CQUAD8      1067       1    1050     531     532    1051    3781    2719+
+           3783    3784
CQUAD8      1068       1    1051     532     533    1052    3783    2721+
+           3785    3786
CQUAD8      1069       1    1052     533     534    1053    3785    2723+
+           3787    3788
CQUAD8      1070       1    1053     534     535    1054    3787    2725+
+           3789    3790
CQUAD8      1071       1    1054     535     536    1055    3789    2727+
+           3791    3792
CQUAD8      1072       1    1055     536     537    1056    3791    2729+
+           3793    3794
CQUAD8      1073       1    1056     537     538    1057    3793    2731+
+           3795    3796
CQUAD8      1074       1    1057     538     539    1058    3795    2733+
+           3797    3798
CQUAD8      1075       1    1058     539     540    1059    3797    2735+
+           3799    3800
CQUAD8      1076       1    1059     540     541    1060    3799    2737+
+           3801    3802
CQUAD8      1077       1    1060     541     542    1061    3801    2739+
+           3803    3804
CQUAD8      1078       1    1061     542     543    1062    3803    2741+
+           3805    3806
CQUAD8      1079       1    1062     543     544    1063    3805    2743+
+           3807    3808
CQUAD8      1080       1    1063     544     545    1064    3807    2745+
+           3809    3810
CQUAD8      1081       1    1064     545     546    1065    3809    2747+
+           3811    3812
CQUAD8      1082       1    1065     546     547    1066    3811    2749+
+           3813    3814
CQUAD8      1083       1    1066     547     548    1067    3813    2751+
+           3815    3816
CQUAD8      1084       1    1067     548     549    1068    3815    2753+
+           3817    3818
CQUAD8      1085       1    1068     549     550    1069    3817    2755+
+           3819    3820
CQUAD8      1086       1    1069     550     551    1070    3819    2757+
+           3821    3822
CQUAD8      1087       1    1070     551     552    1071    3821    2759+
+           3823    3824
CQUAD8      1088       1    1071     552     553    1072    3823    2761+
+           3825    3826
CQUAD8      1089       1    1072     553     554    1073    3825    2763+
+           3827    3828
CQUAD8      1090       1    1073     554     555    1074    3827    2765+
+           3829    3830
CQUAD8      1091       1    1074     555     556    1075    3829    2767+
+           3831    3832
CQUAD8      1092       1    1075     556     557    1076    3831    2769+
+           3833    3834
CQUAD8      1093       1    1076     557     558    1077    3833    2771+
+           3835    3836
CQUAD8      1094       1    1077     558     559    1078    3835    2773+
+           3837    3838
CQUAD8      1095       1    1078     559     560    1079    3837    2775+
+           3839    3840
CQUAD8      1096       1    1079     560     561    1080    3839    2777+
+           3841    3842
CQUAD8      1097       1    1080     561     562    1081    3841    2779+
+           3843    3844
CQUAD8      1098       1    1081     562     563    1082    3843    2781+
+           3845    3846
CQUAD8      1099       1    1082     563     564    1083    3845    2783+
+           3847    3848
CQUAD8      1100       1    1083     564     565    1084    3847    2785+
+           3849    3850
CQUAD8      1101       1    1084     565     566    1085    3849    2787+
+           3851    3852
CQUAD8      1102       1    1085     566     567    1086    3851    2789+
+           3853    3854
CQUAD8      1103       1    1086     567     568    1087    3853    2791+
+           3855    3856
CQUAD8      1104       1    1087     568     569    1088    3855    2793+
+           3857    3858
CQUAD8      1105       1    1088     569     570    1089    3857    2795+
+           3859    3860
CQUAD8      1106       1    1089     570     571    1090    3859    2797+
+           3861    3862
CQUAD8      1107       1    1090     571     572    1091    3861    2799+
+           3863    3864
CQUAD8      1108       1    1091     572     573    1092    3863    2801+
+           3865    3866
CQUAD8      1109       1    1092     573     574    1093    3865    2803+
+           3867    3868
CQUAD8      1110       1    1093     574     575    1094    3867    2805+
+           3869    3870
CQUAD8      1111       1    1094     575     576    1095    3869    2807+
+           3871    3872
CQUAD8      1112       1    1095     576     577    1096    3871    2809+
+           3873    3874
CQUAD8      1113       1    1096     577     578    1097    3873    2811+
+           3875    3876
CQUAD8      1114       1    1097     578     579    1098    3875    2813+
+           3877    3878
CQUAD8      1115       1    1098     579     580    1099    3877    2815+
+           3879    3880
CQUAD8      1116       1    1099     580     581    1100    3879    2817+
+           3881    3882
CQUAD8      1117       1    1100     581     582    1101    3881    2819+
+           3883    3884
CQUAD8      1118       1    1101     582     583    1102    3883    2821+
+           3885    3886
CQUAD8      1119       1    1102     583     584    1103    3885    2823+
+           3887    3888
CQUAD8      1120       1    1103     584     585    1104    3887    2825+
+           3889    3890
CQUAD8      1121       1    1104     585     586    1105    3889    2827+
+           3891    3892
CQUAD8      1122       1    1105     586     587    1106    3891    2829+
+           3893    3894
CQUAD8      1123       1    1106     587     588    1107    3893    2831+
+           3895    3896
CQUAD8      1124       1    1107     588     589    1108    3895    2833+
+           3897    3898
CQUAD8      1125       1    1108     589     590    1109    3897    2835+
+           3899    3900
CQUAD8      1126       1    1109     590     591    1110    3899    2837+
+           3901    3902
CQUAD8      1127       1    1110     591     592    1111    3901    2839+
+           3903    3904
CQUAD8      1128       1    1111     592     593    1112    3903    2841+
+           3905    3906
CQUAD8      1129       1    1112     593     594    1113    3905    2843+
+           3907    3908
CQUAD8      1130       1    1113     594     595    1114    3907    2845+
+           3909    3910
CQUAD8      1131       1    1114     595     596    1115    3909    2847+
+           3911    3912
CQUAD8      1132       1    1115     596     597    1116    3911    2849+
+           3913    3914
CQUAD8      1133       1    1116     597     598    1117    3913    2851+
+           3915    3916
CQUAD8      1134       1    1117     598     599    1118    3915    2853+
+           3917    3918
CQUAD8      1135       1    1118     599     600    1119    3917    2855+
+           3919    3920
CQUAD8      1136       1    1119     600     601    1120    3919    2857+
+           3921    3922
CQUAD8      1137       1    1120     601     602    1121    3921    2859+
+           3923    3924
CQUAD8      1138       1    1121     602     603    1122    3923    2861+
+           3925    3926
CQUAD8      1139       1    1122     603     604    1123    3925    2863+
+           3927    3928
CQUAD8      1140       1    1123     604     605    1124    3927    2865+
+           3929    3930
CQUAD8      1141       1    1124     605     606    1125    3929    2867+
+           3931    3932
CQUAD8      1142       1    1125     606     607    1126    3931    2869+
+           3933    3934
CQUAD8      1143       1    1126     607     608    1127    3933    2871+
+           3935    3936
CQUAD8      1144       1    1127     608     609    1128    3935    2873+
+           3937    3938
CQUAD8      1145       1    1128     609     610    1129    3937    2875+
+           3939    3940
CQUAD8      1146       1    1129     610     611    1130    3939    2877+
+           3941    3942
CQUAD8      1147       1    1130     611     612    1131    3941    2879+
+           3943    3944
CQUAD8      1148       1    1131     612     613    1132    3943    2881+
+           3945    3946
CQUAD8      1149       1    1132     613     614    1133    3945    2883+
+           3947    3948
CQUAD8      1150       1    1133     614     615    1134    3947    2885+
+           3949    3950
CQUAD8      1151       1    1134     615     616    1135    3949    2887+
+           3951    3952
CQUAD8      1152       1    1135     616     617    1136    3951    2889+
+           3953    3954
CQUAD8      1153       1    1136     617     618    1137    3953    2891+
+           3955    3956
CQUAD8      1154       1    1137     618     619    1138    3955    2893+
+           3957    3958
CQUAD8      1155       1    1138     619     620     892    3957    2895+
+           3495    3959
CQUAD8      1156       1    1138     892     891    1139    3959    3492+
+           3960    3961
CQUAD8      1157       1    1139     891     890     946    3960    3489+
+           3571    3962
CQUAD8      1158       1    1045    1046    1037    1038    3774    3963+
+           3756    3964
CQUAD8      1159       1    1140    1039    1040    1041    3965    3760+
+           3763    3966
CQUAD8      1160       1    1140    1041    1042    1043    3966    3765+
+           3768    3967
CQUAD8      1161       1    1044    1045    1038    1141    3772    3964+
+           3968    3969
CQUAD8      1162       1    1038    1039    1140    1141    3758    3965+
+           3970    3968
CQUAD8      1163       1    1044    1141    1140    1043    3969    3970+
+           3967    3770
CQUAD8      1164       1    1046    1047    1036    1037    3776    3971+
+           3754    3963
CQUAD8      1165       1    1047    1048    1035    1036    3778    3972+
+           3752    3971
CQUAD8      1166       1    1048    1049    1034    1035    3780    3973+
+           3750    3972
CQUAD8      1167       1     990     991    1092    1093    3662    3974+
+           3868    3975
CQUAD8      1168       1     991     992    1091    1092    3664    3976+
+           3866    3974
CQUAD8      1169       1     992     993    1090    1091    3666    3977+
+           3864    3976
CQUAD8      1170       1     993     994    1089    1090    3668    3978+
+           3862    3977
CQUAD8      1171       1     994     995    1088    1089    3670    3979+
+           3860    3978
CQUAD8      1172       1     995     996    1087    1088    3672    3980+
+           3858    3979
CQUAD8      1173       1     996     997    1086    1087    3674    3981+
+           3856    3980
CQUAD8      1174       1     997     998    1085    1086    3676    3982+
+           3854    3981
CQUAD8      1175       1     998     999    1084    1085    3678    3983+
+           3852    3982
CQUAD8      1176       1     999    1000    1083    1084    3680    3984+
+           3850    3983
CQUAD8      1177       1    1000    1001    1082    1083    3682    3985+
+           3848    3984
CQUAD8      1178       1    1001    1002    1081    1082    3684    3986+
+           3846    3985
CQUAD8      1179       1    1002    1003    1080    1081    3686    3987+
+           3844    3986
CQUAD8      1180       1    1003    1004    1079    1080    3688    3988+
+           3842    3987
CQUAD8      1181       1    1004    1005    1078    1079    3690    3989+
+           3840    3988
CQUAD8      1182       1    1005    1006    1077    1078    3692    3990+
+           3838    3989
CQUAD8      1183       1    1006    1007    1076    1077    3694    3991+
+           3836    3990
CQUAD8      1184       1    1007    1008    1075    1076    3696    3992+
+           3834    3991
CQUAD8      1185       1    1008    1009    1074    1075    3698    3993+
+           3832    3992
CQUAD8      1186       1    1009    1010    1073    1074    3700    3994+
+           3830    3993
CQUAD8      1187       1    1010    1011    1072    1073    3702    3995+
+           3828    3994
CQUAD8      1188       1    1011    1012    1071    1072    3704    3996+
+           3826    3995
CQUAD8      1189       1    1012    1013    1070    1071    3706    3997+
+           3824    3996
CQUAD8      1190       1    1013    1014    1069    1070    3708    3998+
+           3822    3997
CQUAD8      1191       1    1014    1015    1068    1069    3710    3999+
+           3820    3998
CQUAD8      1192       1    1015    1016    1067    1068    3712    4000+
+           3818    3999
CQUAD8      1193       1    1016    1017    1066    1067    3714    4001+
+           3816    4000
CQUAD8      1194       1    1017    1018    1065    1066    3716    4002+
+           3814    4001
CQUAD8      1195       1    1018    1019    1064    1065    3718    4003+
+           3812    4002
CQUAD8      1196       1    1019    1020    1063    1064    3720    4004+
+           3810    4003
CQUAD8      1197       1    1020    1021    1062    1063    3722    4005+
+           3808    4004
CQUAD8      1198       1    1021    1022    1061    1062    3724    4006+
+           3806    4005
CQUAD8      1199       1    1022    1023    1060    1061    3726    4007+
+           3804    4006
CQUAD8      1200       1    1023    1024    1059    1060    3728    4008+
+           3802    4007
CQUAD8      1201       1    1024    1025    1058    1059    3730    4009+
+           3800    4008
CQUAD8      1202       1    1025    1026    1057    1058    3732    4010+
+           3798    4009
CQUAD8      1203       1    1026    1027    1056    1057    3734    4011+
+           3796    4010
CQUAD8      1204       1    1027    1028    1055    1056    3736    4012+
+           3794    4011
CQUAD8      1205       1    1028    1029    1054    1055    3738    4013+
+           3792    4012
CQUAD8      1206       1    1029    1030    1053    1054    3740    4014+
+           3790    4013
CQUAD8      1207       1    1030    1031    1052    1053    3742    4015+
+           3788    4014
CQUAD8      1208       1    1031    1032    1051    1052    3744    4016+
+           3786    4015
CQUAD8      1209       1    1032    1033    1050    1051    3746    4017+
+           3784    4016
CQUAD8      1210       1    1033    1034    1049    1050    3748    3973+
+           3782    4017
CQUAD8      1211       1     968     969    1114    1115    3618    4018+
+           3912    4019
CQUAD8      1212       1     969     970    1113    1114    3620    4020+
+           3910    4018
CQUAD8      1213       1     970     971    1112    1113    3622    4021+
+           3908    4020
CQUAD8      1214       1     971     972    1111    1112    3624    4022+
+           3906    4021
CQUAD8      1215       1     972     973    1110    1111    3626    4023+
+           3904    4022
CQUAD8      1216       1     973     974    1109    1110    3628    4024+
+           3902    4023
CQUAD8      1217       1     974     975    1108    1109    3630    4025+
+           3900    4024
CQUAD8      1218       1     975     976    1107    1108    3632    4026+
+           3898    4025
CQUAD8      1219       1     976     977    1106    1107    3634    4027+
+           3896    4026
CQUAD8      1220       1     977     978    1105    1106    3636    4028+
+           3894    4027
CQUAD8      1221       1     978     979    1104    1105    3638    4029+
+           3892    4028
CQUAD8      1222       1     979     980    1103    1104    3640    4030+
+           3890    4029
CQUAD8      1223       1     980     981    1102    1103    3642    4031+
+           3888    4030
CQUAD8      1224       1     981     982    1101    1102    3644    4032+
+           3886    4031
CQUAD8      1225       1     982     983    1100    1101    3646    4033+
+           3884    4032
CQUAD8      1226       1     983     984    1099    1100    3648    4034+
+           3882    4033
CQUAD8      1227       1     984     985    1098    1099    3650    4035+
+           3880    4034
CQUAD8      1228       1     985     986    1097    1098    3652    4036+
+           3878    4035
CQUAD8      1229       1     986     987    1096    1097    3654    4037+
+           3876    4036
CQUAD8      1230       1     987     988    1095    1096    3656    4038+
+           3874    4037
CQUAD8      1231       1     988     989    1094    1095    3658    4039+
+           3872    4038
CQUAD8      1232       1     989     990    1093    1094    3660    3975+
+           3870    4039
CQUAD8      1233       1     957     958    1125    1126    3596    4040+
+           3934    4041
CQUAD8      1234       1     958     959    1124    1125    3598    4042+
+           3932    4040
CQUAD8      1235       1     959     960    1123    1124    3600    4043+
+           3930    4042
CQUAD8      1236       1     960     961    1122    1123    3602    4044+
+           3928    4043
CQUAD8      1237       1     961     962    1121    1122    3604    4045+
+           3926    4044
CQUAD8      1238       1     962     963    1120    1121    3606    4046+
+           3924    4045
CQUAD8      1239       1     963     964    1119    1120    3608    4047+
+           3922    4046
CQUAD8      1240       1     964     965    1118    1119    3610    4048+
+           3920    4047
CQUAD8      1241       1     965     966    1117    1118    3612    4049+
+           3918    4048
CQUAD8      1242       1     966     967    1116    1117    3614    4050+
+           3916    4049
CQUAD8      1243       1     967     968    1115    1116    3616    4019+
+           3914    4050
CQUAD8      1244       1     952     953    1130    1131    3586    4051+
+           3944    4052
CQUAD8      1245       1     953     954    1129    1130    3588    4053+
+           3942    4051
CQUAD8      1246       1     954     955    1128    1129    3590    4054+
+           3940    4053
CQUAD8      1247       1     955     956    1127    1128    3592    4055+
+           3938    4054
CQUAD8      1248       1     956     957    1126    1127    3594    4041+
+           3936    4055
CQUAD8      1249       1     951     952    1131    1132    3584    4052+
+           3946    4056
CQUAD8      1250       1     951    1132    1133     950    4056    3948+
+           4057    3582
CQUAD8      1251       1     949     950    1133    1134    3580    4057+
+           3950    4058
CQUAD8      1252       1     948     949    1134    1135    3578    4058+
+           3952    4059
CQUAD8      1253       1     947     948    1135    1136    3576    4059+
+           3954    4060
CQUAD8      1254       1    1137    1138    1139    1142    3958    3961+
+           4061    4062
CQUAD8      1255       1    1139     946     947    1142    3962    3574+
+           4063    4061
CQUAD8      1256       1    1137    1142     947    1136    4062    4063+
+           4060    3956
CQUAD8      1257       1     494     495     741     742    2645    3277+
+           3139    4064
CQUAD8      1258       1    1147     493     494     742    4065    2643+
+           4064    4066
CQUAD8      1259       1    1146     489     490    1149    4067    2635+
+           4068    4069
CQUAD8      1260       1    1150     743     744    1148    4070    3143+
+           4071    4072
CQUAD8      1261       1    1151    1153    1154    1152    4073    4074+
+           4075    4076
CQUAD8      1262       1    1153    1155    1156    1154    4077    4078+
+           4079    4074
CQUAD8      1263       1     745     746    1151    1145    3147    4080+
+           4081    4082
CQUAD8      1264       1     746     747    1153    1151    3149    4083+
+           4073    4080
CQUAD8      1265       1     747     748    1155    1153    3151    4084+
+           4077    4083
CQUAD8      1266       1     748     749    1143    1155    3153    4085+
+           4086    4084
CQUAD8      1267       1    1155    1143    1144    1156    4086    4087+
+           4088    4078
CQUAD8      1268       1    1156    1144     485     486    4088    4089+
+           2627    4090
CQUAD8      1269       1    1154    1156     486     487    4079    4090+
+           2629    4091
CQUAD8      1270       1    1152    1154     487     488    4075    4091+
+           2631    4092
CQUAD8      1271       1    1146    1152     488     489    4093    4092+
+           2633    4067
CQUAD8      1272       1    1145    1151    1152    1146    4081    4076+
+           4093    4094
CQUAD8      1273       1    1158     758     472     473    4095    4096+
+           2601    4097
CQUAD8      1274       1    1160     755     756    1159    4098    3167+
+           4099    4100
CQUAD8      1275       1    1158     473     474    1161    4097    2603+
+           4101    4102
CQUAD8      1276       1     478     479     753     754    2613    4103+
+           3163    4104
CQUAD8      1277       1    1157     477     478     754    4105    2611+
+           4104    4106
CQUAD8      1278       1    1163     484     485    1144    4107    2625+
+           4089    4108
CQUAD8      1279       1    1164    1162     750     751    4109    4110+
+           3157    4111
CQUAD8      1280       1     752     753     479     480    3161    4103+
+           2615    4112
CQUAD8      1281       1     713     714     661     662    3083    3233+
+           2979    4113
CQUAD8      1282       1    1172     666     667    1169    4114    2989+
+           4115    4116
CQUAD8      1283       1    1173    1171     711     712    4117    4118+
+           3079    4119
CQUAD8      1284       1    1174    1176    1177    1175    4120    4121+
+           4122    4123
CQUAD8      1285       1    1176    1178    1179    1177    4124    4125+
+           4126    4121
CQUAD8      1286       1     667     668    1174    1169    2991    4127+
+           4128    4115
CQUAD8      1287       1     668     669    1176    1174    2993    4129+
+           4120    4127
CQUAD8      1288       1     669     670    1178    1176    2995    4130+
+           4124    4129
CQUAD8      1289       1     670     671    1167    1178    2997    4131+
+           4132    4130
CQUAD8      1290       1    1178    1167    1168    1179    4132    4133+
+           4134    4125
CQUAD8      1291       1    1179    1168     706     707    4134    4135+
+           3069    4136
CQUAD8      1292       1    1177    1179     707     708    4126    4136+
+           3071    4137
CQUAD8      1293       1    1175    1177     708     709    4122    4137+
+           3073    4138
CQUAD8      1294       1    1170    1175     709     710    4139    4138+
+           3075    4140
CQUAD8      1295       1    1169    1174    1175    1170    4128    4123+
+           4139    4141
CQUAD8      1296       1    1182    1184    1185    1183    4142    4143+
+           4144    4145
CQUAD8      1297       1     341     342    1182    1181    2339    4146+
+           4147    4148
CQUAD8      1298       1     342     343    1184    1182    2341    4149+
+           4142    4146
CQUAD8      1299       1     343     344    1165    1184    2343    4150+
+           4151    4149
CQUAD8      1300       1    1184    1165    1166    1185    4151    4152+
+           4153    4143
CQUAD8      1301       1    1185    1166     699     700    4153    4154+
+           3055    4155
CQUAD8      1302       1    1183    1185     700     701    4144    4155+
+           3057    4156
CQUAD8      1303       1    1180    1183     701     702    4157    4156+
+           3059    4158
CQUAD8      1304       1    1181    1182    1183    1180    4147    4145+
+           4157    4159
CQUAD8      1305       1    1167     671     672    1189    4131    2999+
+           4160    4161
CQUAD8      1306       1    1190     674     339    1186    4162    3004+
+           4163    4164
CQUAD8      1307       1     339     340    1191    1186    2335    4165+
+           4166    4163
CQUAD8      1308       1     340     341    1181    1191    2337    4148+
+           4167    4165
CQUAD8      1309       1    1191    1181    1180    1192    4167    4159+
+           4168    4169
CQUAD8      1310       1    1192    1180     702     703    4168    4158+
+           3061    4170
CQUAD8      1311       1    1187    1192     703     704    4171    4170+
+           3063    4172
CQUAD8      1312       1    1186    1191    1192    1187    4166    4169+
+           4171    4173
CQUAD8      1313       1     470     471     759     760    2597    4174+
+           3175    4175
CQUAD8      1314       1     471     472     758     759    2599    4096+
+           3173    4174
CQUAD8      1315       1    1197     469     470     760    4176    2595+
+           4175    4177
CQUAD8      1316       1    1197    1198     468     469    4178    4179+
+           2593    4176
CQUAD8      1317       1    1200    1194    1195    1201    4180    4181+
+           4182    4183
CQUAD8      1318       1    1195     463     464    1201    4184    2583+
+           4185    4182
CQUAD8      1319       1    1202     765     766    1193    4186    3187+
+           4187    4188
CQUAD8      1320       1    1202    1193    1194    1200    4188    4189+
+           4180    4190
CQUAD8      1321       1     465     466    1203    1199    2587    4191+
+           4192    4193
CQUAD8      1322       1     466     467    1196    1203    2589    4194+
+           4195    4191
CQUAD8      1323       1    1203    1196     762     763    4195    4196+
+           3181    4197
CQUAD8      1324       1    1199    1203     763     764    4192    4197+
+           3183    4198
CQUAD8      1325       1    1204    1193     766     767    4199    4187+
+           3189    4200
CQUAD8      1326       1    1204     767     768    1205    4200    3191+
+           4201    4202
CQUAD8      1327       1    1205     768     769    1206    4201    3193+
+           4203    4204
CQUAD8      1328       1    1206     769     770    1207    4203    3195+
+           4205    4206
CQUAD8      1329       1    1207     770     771    1208    4205    3197+
+           4207    4208
CQUAD8      1330       1    1208     771     772    1209    4207    3199+
+           4209    4210
CQUAD8      1331       1    1209     772     773    1210    4209    3201+
+           4211    4212
CQUAD8      1332       1    1210     773     774    1211    4211    3203+
+           4213    4214
CQUAD8      1333       1    1211     774     775     789    4213    3205+
+           3334    4215
CQUAD8      1334       1    1211     789     214     215    4215    3332+
+           2085    4216
CQUAD8      1335       1    1211     215     216    1212    4216    2087+
+           4217    4218
CQUAD8      1336       1    1212     216     217    1213    4217    2089+
+           4219    4220
CQUAD8      1337       1    1213     217     218    1214    4219    2091+
+           4221    4222
CQUAD8      1338       1    1214     218     219    1215    4221    2093+
+           4223    4224
CQUAD8      1339       1    1215     219     220    1216    4223    2095+
+           4225    4226
CQUAD8      1340       1    1216     220     221    1217    4225    2097+
+           4227    4228
CQUAD8      1341       1    1217     221     222    1218    4227    2099+
+           4229    4230
CQUAD8      1342       1    1218     222     223    1219    4229    2101+
+           4231    4232
CQUAD8      1343       1    1219     223     224    1220    4231    2103+
+           4233    4234
CQUAD8      1344       1    1220     224       1    1221    4233    2104+
+           4235    4236
CQUAD8      1345       1    1221       1       2    1222    4235    1659+
+           4237    4238
CQUAD8      1346       1    1222       2       3    1223    4237    1661+
+           4239    4240
CQUAD8      1347       1    1223       3       4    1224    4239    1663+
+           4241    4242
CQUAD8      1348       1    1224       4       5    1225    4241    1665+
+           4243    4244
CQUAD8      1349       1    1225       5       6    1226    4243    1667+
+           4245    4246
CQUAD8      1350       1    1226       6       7    1227    4245    1669+
+           4247    4248
CQUAD8      1351       1    1227       7       8    1228    4247    1671+
+           4249    4250
CQUAD8      1352       1    1228       8       9    1229    4249    1673+
+           4251    4252
CQUAD8      1353       1    1229       9      10    1230    4251    1675+
+           4253    4254
CQUAD8      1354       1    1230      10      11    1231    4253    1677+
+           4255    4256
CQUAD8      1355       1    1231      11      12    1232    4255    1679+
+           4257    4258
CQUAD8      1356       1    1232      12      13    1233    4257    1681+
+           4259    4260
CQUAD8      1357       1    1233      13      14    1234    4259    1683+
+           4261    4262
CQUAD8      1358       1    1234      14      15    1235    4261    1685+
+           4263    4264
CQUAD8      1359       1    1235      15      16    1236    4263    1687+
+           4265    4266
CQUAD8      1360       1    1236      16      17    1237    4265    1689+
+           4267    4268
CQUAD8      1361       1    1237      17      18    1238    4267    1691+
+           4269    4270
CQUAD8      1362       1    1238      18      19    1239    4269    1693+
+           4271    4272
CQUAD8      1363       1    1239      19      20    1240    4271    1695+
+           4273    4274
CQUAD8      1364       1    1240      20      21    1241    4273    1697+
+           4275    4276
CQUAD8      1365       1    1241      21      22    1242    4275    1699+
+           4277    4278
CQUAD8      1366       1    1242      22      23    1243    4277    1701+
+           4279    4280
CQUAD8      1367       1    1243      23      24    1244    4279    1703+
+           4281    4282
CQUAD8      1368       1    1244      24      25    1245    4281    1705+
+           4283    4284
CQUAD8      1369       1    1245      25      26    1246    4283    1707+
+           4285    4286
CQUAD8      1370       1    1246      26      27    1247    4285    1709+
+           4287    4288
CQUAD8      1371       1    1247      27      28    1248    4287    1711+
+           4289    4290
CQUAD8      1372       1    1248      28      29    1249    4289    1713+
+           4291    4292
CQUAD8      1373       1    1249      29      30    1250    4291    1715+
+           4293    4294
CQUAD8      1374       1    1250      30      31    1251    4293    1717+
+           4295    4296
CQUAD8      1375       1    1251      31      32    1252    4295    1719+
+           4297    4298
CQUAD8      1376       1    1252      32      33    1253    4297    1721+
+           4299    4300
CQUAD8      1377       1    1253      33      34    1254    4299    1723+
+           4301    4302
CQUAD8      1378       1    1254      34      35    1255    4301    1725+
+           4303    4304
CQUAD8      1379       1    1255      35      36    1256    4303    1727+
+           4305    4306
CQUAD8      1380       1    1256      36      37    1257    4305    1729+
+           4307    4308
CQUAD8      1381       1    1257      37      38    1258    4307    1731+
+           4309    4310
CQUAD8      1382       1    1258      38      39    1259    4309    1733+
+           4311    4312
CQUAD8      1383       1    1259      39      40    1260    4311    1735+
+           4313    4314
CQUAD8      1384       1    1260      40      41    1261    4313    1737+
+           4315    4316
CQUAD8      1385       1    1261      41      42    1262    4315    1739+
+           4317    4318
CQUAD8      1386       1    1262      42      43    1263    4317    1741+
+           4319    4320
CQUAD8      1387       1    1263      43      44    1264    4319    1743+
+           4321    4322
CQUAD8      1388       1    1264      44      45    1265    4321    1745+
+           4323    4324
CQUAD8      1389       1    1265      45      46    1266    4323    1747+
+           4325    4326
CQUAD8      1390       1    1266      46      47    1267    4325    1749+
+           4327    4328
CQUAD8      1391       1    1267      47      48    1268    4327    1751+
+           4329    4330
CQUAD8      1392       1    1268      48      49    1269    4329    1753+
+           4331    4332
CQUAD8      1393       1    1269      49      50    1270    4331    1755+
+           4333    4334
CQUAD8      1394       1    1270      50      51    1271    4333    1757+
+           4335    4336
CQUAD8      1395       1    1271      51      52    1272    4335    1759+
+           4337    4338
CQUAD8      1396       1    1272      52      53    1273    4337    1761+
+           4339    4340
CQUAD8      1397       1    1273      53      54    1274    4339    1763+
+           4341    4342
CQUAD8      1398       1    1274      54      55    1275    4341    1765+
+           4343    4344
CQUAD8      1399       1    1275      55      56    1276    4343    1767+
+           4345    4346
CQUAD8      1400       1    1276      56      57    1277    4345    1769+
+           4347    4348
CQUAD8      1401       1    1277      57      58    1278    4347    1771+
+           4349    4350
CQUAD8      1402       1    1278      58      59    1279    4349    1773+
+           4351    4352
CQUAD8      1403       1    1279      59      60    1280    4351    1775+
+           4353    4354
CQUAD8      1404       1    1280      60      61    1281    4353    1777+
+           4355    4356
CQUAD8      1405       1    1281      61      62    1282    4355    1779+
+           4357    4358
CQUAD8      1406       1    1282      62      63    1283    4357    1781+
+           4359    4360
CQUAD8      1407       1    1283      63      64    1284    4359    1783+
+           4361    4362
CQUAD8      1408       1    1284      64      65    1285    4361    1785+
+           4363    4364
CQUAD8      1409       1    1285      65      66    1286    4363    1787+
+           4365    4366
CQUAD8      1410       1    1286      66      67    1287    4365    1789+
+           4367    4368
CQUAD8      1411       1    1287      67      68    1288    4367    1791+
+           4369    4370
CQUAD8      1412       1    1288      68      69    1289    4369    1793+
+           4371    4372
CQUAD8      1413       1    1289      69      70    1290    4371    1795+
+           4373    4374
CQUAD8      1414       1    1290      70      71    1291    4373    1797+
+           4375    4376
CQUAD8      1415       1    1291      71      72    1292    4375    1799+
+           4377    4378
CQUAD8      1416       1    1292      72      73    1293    4377    1801+
+           4379    4380
CQUAD8      1417       1    1293      73      74    1294    4379    1803+
+           4381    4382
CQUAD8      1418       1    1294      74      75    1295    4381    1805+
+           4383    4384
CQUAD8      1419       1    1295      75      76    1296    4383    1807+
+           4385    4386
CQUAD8      1420       1    1296      76      77    1297    4385    1809+
+           4387    4388
CQUAD8      1421       1    1297      77      78    1298    4387    1811+
+           4389    4390
CQUAD8      1422       1    1298      78      79    1299    4389    1813+
+           4391    4392
CQUAD8      1423       1    1299      79      80    1300    4391    1815+
+           4393    4394
CQUAD8      1424       1    1300      80      81    1301    4393    1817+
+           4395    4396
CQUAD8      1425       1    1301      81      82    1302    4395    1819+
+           4397    4398
CQUAD8      1426       1    1302      82      83    1303    4397    1821+
+           4399    4400
CQUAD8      1427       1    1303      83      84    1304    4399    1823+
+           4401    4402
CQUAD8      1428       1    1304      84      85    1305    4401    1825+
+           4403    4404
CQUAD8      1429       1    1305      85      86    1306    4403    1827+
+           4405    4406
CQUAD8      1430       1    1306      86      87    1307    4405    1829+
+           4407    4408
CQUAD8      1431       1    1307      87      88    1308    4407    1831+
+           4409    4410
CQUAD8      1432       1    1308      88      89    1309    4409    1833+
+           4411    4412
CQUAD8      1433       1    1309      89      90    1310    4411    1835+
+           4413    4414
CQUAD8      1434       1    1310      90      91    1311    4413    1837+
+           4415    4416
CQUAD8      1435       1    1311      91      92    1312    4415    1839+
+           4417    4418
CQUAD8      1436       1    1312      92      93    1313    4417    1841+
+           4419    4420
CQUAD8      1437       1    1313      93      94    1314    4419    1843+
+           4421    4422
CQUAD8      1438       1    1314      94      95    1315    4421    1845+
+           4423    4424
CQUAD8      1439       1    1315      95      96    1316    4423    1847+
+           4425    4426
CQUAD8      1440       1    1316      96      97    1317    4425    1849+
+           4427    4428
CQUAD8      1441       1    1317      97      98    1318    4427    1851+
+           4429    4430
CQUAD8      1442       1    1318      98      99    1319    4429    1853+
+           4431    4432
CQUAD8      1443       1    1319      99     100    1320    4431    1855+
+           4433    4434
CQUAD8      1444       1    1320     100     101    1321    4433    1857+
+           4435    4436
CQUAD8      1445       1    1321     101     102    1322    4435    1859+
+           4437    4438
CQUAD8      1446       1    1322     102     103    1323    4437    1861+
+           4439    4440
CQUAD8      1447       1    1323     103     104    1324    4439    1863+
+           4441    4442
CQUAD8      1448       1    1324     104     105    1325    4441    1865+
+           4443    4444
CQUAD8      1449       1    1325     105     106     793    4443    1867+
+           3476    4445
CQUAD8      1450       1    1325     793     792    1326    4445    3473+
+           4446    4447
CQUAD8      1451       1    1326     792     791    1327    4446    3470+
+           4448    4449
CQUAD8      1452       1    1327     791     790    1328    4448    3467+
+           4450    4451
CQUAD8      1453       1    1328     790     685     686    4450    3465+
+           3027    4452
CQUAD8      1454       1    1328     686     687    1329    4452    3029+
+           4453    4454
CQUAD8      1455       1    1329     687     688    1330    4453    3031+
+           4455    4456
CQUAD8      1456       1    1330     688     689    1331    4455    3033+
+           4457    4458
CQUAD8      1457       1    1331     689     690    1332    4457    3035+
+           4459    4460
CQUAD8      1458       1    1332     690     691    1333    4459    3037+
+           4461    4462
CQUAD8      1459       1    1333     691     692    1334    4461    3039+
+           4463    4464
CQUAD8      1460       1    1334     692     693    1335    4463    3041+
+           4465    4466
CQUAD8      1461       1    1335     693     694    1336    4465    3043+
+           4467    4468
CQUAD8      1462       1    1336     694     695    1337    4467    3045+
+           4469    4470
CQUAD8      1463       1    1337     695     696    1338    4469    3047+
+           4471    4472
CQUAD8      1464       1    1338     696     697    1339    4471    3049+
+           4473    4474
CQUAD8      1465       1    1339     697     698    1340    4473    3051+
+           4475    4476
CQUAD8      1466       1    1340     698     699    1166    4475    3053+
+           4154    4477
CQUAD8      1467       1    1340    1166    1165    1341    4477    4152+
+           4478    4479
CQUAD8      1468       1    1341    1165     344     345    4478    4150+
+           2345    4480
CQUAD8      1469       1    1341     345     346    1342    4480    2347+
+           4481    4482
CQUAD8      1470       1    1342     346     347    1343    4481    2349+
+           4483    4484
CQUAD8      1471       1    1343     347     348    1344    4483    2351+
+           4485    4486
CQUAD8      1472       1    1344     348     349    1345    4485    2353+
+           4487    4488
CQUAD8      1473       1    1345     349     350    1346    4487    2355+
+           4489    4490
CQUAD8      1474       1    1346     350     351    1347    4489    2357+
+           4491    4492
CQUAD8      1475       1    1347     351     352    1348    4491    2359+
+           4493    4494
CQUAD8      1476       1    1348     352     353    1349    4493    2361+
+           4495    4496
CQUAD8      1477       1    1349     353     354    1350    4495    2363+
+           4497    4498
CQUAD8      1478       1    1350     354     355    1351    4497    2365+
+           4499    4500
CQUAD8      1479       1    1351     355     356    1352    4499    2367+
+           4501    4502
CQUAD8      1480       1    1352     356     357    1353    4501    2369+
+           4503    4504
CQUAD8      1481       1    1353     357     358    1354    4503    2371+
+           4505    4506
CQUAD8      1482       1    1354     358     359    1355    4505    2373+
+           4507    4508
CQUAD8      1483       1    1355     359     360    1356    4507    2375+
+           4509    4510
CQUAD8      1484       1    1356     360     361    1357    4509    2377+
+           4511    4512
CQUAD8      1485       1    1357     361     362    1358    4511    2379+
+           4513    4514
CQUAD8      1486       1    1358     362     363    1359    4513    2381+
+           4515    4516
CQUAD8      1487       1    1359     363     364    1360    4515    2383+
+           4517    4518
CQUAD8      1488       1    1360     364     365    1361    4517    2385+
+           4519    4520
CQUAD8      1489       1    1361     365     366    1362    4519    2387+
+           4521    4522
CQUAD8      1490       1    1362     366     367    1363    4521    2389+
+           4523    4524
CQUAD8      1491       1    1363     367     368    1364    4523    2391+
+           4525    4526
CQUAD8      1492       1    1364     368     369    1365    4525    2393+
+           4527    4528
CQUAD8      1493       1    1365     369     370    1366    4527    2395+
+           4529    4530
CQUAD8      1494       1    1366     370     371    1367    4529    2397+
+           4531    4532
CQUAD8      1495       1    1367     371     372    1368    4531    2399+
+           4533    4534
CQUAD8      1496       1    1368     372     373    1369    4533    2401+
+           4535    4536
CQUAD8      1497       1    1369     373     374    1370    4535    2403+
+           4537    4538
CQUAD8      1498       1    1370     374     375    1371    4537    2405+
+           4539    4540
CQUAD8      1499       1    1371     375     376    1372    4539    2407+
+           4541    4542
CQUAD8      1500       1    1372     376     377    1373    4541    2409+
+           4543    4544
CQUAD8      1501       1    1373     377     378    1374    4543    2411+
+           4545    4546
CQUAD8      1502       1    1374     378     379    1375    4545    2413+
+           4547    4548
CQUAD8      1503       1    1375     379     380    1376    4547    2415+
+           4549    4550
CQUAD8      1504       1    1376     380     381    1377    4549    2417+
+           4551    4552
CQUAD8      1505       1    1377     381     382    1378    4551    2419+
+           4553    4554
CQUAD8      1506       1    1378     382     383    1379    4553    2421+
+           4555    4556
CQUAD8      1507       1    1379     383     384    1380    4555    2423+
+           4557    4558
CQUAD8      1508       1    1380     384     385    1381    4557    2425+
+           4559    4560
CQUAD8      1509       1    1381     385     386    1382    4559    2427+
+           4561    4562
CQUAD8      1510       1    1382     386     387    1383    4561    2429+
+           4563    4564
CQUAD8      1511       1    1383     387     388    1384    4563    2431+
+           4565    4566
CQUAD8      1512       1    1384     388     389    1385    4565    2433+
+           4567    4568
CQUAD8      1513       1    1385     389     390    1386    4567    2435+
+           4569    4570
CQUAD8      1514       1    1386     390     391    1387    4569    2437+
+           4571    4572
CQUAD8      1515       1    1387     391     392    1388    4571    2439+
+           4573    4574
CQUAD8      1516       1    1388     392     393    1389    4573    2441+
+           4575    4576
CQUAD8      1517       1    1389     393     394    1390    4575    2443+
+           4577    4578
CQUAD8      1518       1    1390     394     395    1391    4577    2445+
+           4579    4580
CQUAD8      1519       1    1391     395     396    1392    4579    2447+
+           4581    4582
CQUAD8      1520       1    1392     396     397    1393    4581    2449+
+           4583    4584
CQUAD8      1521       1    1393     397     398    1394    4583    2451+
+           4585    4586
CQUAD8      1522       1    1394     398     399    1395    4585    2453+
+           4587    4588
CQUAD8      1523       1    1395     399     400    1396    4587    2455+
+           4589    4590
CQUAD8      1524       1    1396     400     401    1397    4589    2457+
+           4591    4592
CQUAD8      1525       1    1397     401     402    1398    4591    2459+
+           4593    4594
CQUAD8      1526       1    1398     402     403    1399    4593    2461+
+           4595    4596
CQUAD8      1527       1    1399     403     404    1400    4595    2463+
+           4597    4598
CQUAD8      1528       1    1400     404     405    1401    4597    2465+
+           4599    4600
CQUAD8      1529       1    1401     405     406    1402    4599    2467+
+           4601    4602
CQUAD8      1530       1    1402     406     407    1403    4601    2469+
+           4603    4604
CQUAD8      1531       1    1403     407     408    1404    4603    2471+
+           4605    4606
CQUAD8      1532       1    1404     408     409    1405    4605    2473+
+           4607    4608
CQUAD8      1533       1    1405     409     410    1406    4607    2475+
+           4609    4610
CQUAD8      1534       1    1406     410     411    1407    4609    2477+
+           4611    4612
CQUAD8      1535       1    1407     411     412    1408    4611    2479+
+           4613    4614
CQUAD8      1536       1    1408     412     413    1409    4613    2481+
+           4615    4616
CQUAD8      1537       1    1409     413     414    1410    4615    2483+
+           4617    4618
CQUAD8      1538       1    1410     414     415    1411    4617    2485+
+           4619    4620
CQUAD8      1539       1    1411     415     416    1412    4619    2487+
+           4621    4622
CQUAD8      1540       1    1412     416     417    1413    4621    2489+
+           4623    4624
CQUAD8      1541       1    1413     417     418    1414    4623    2491+
+           4625    4626
CQUAD8      1542       1    1414     418     419    1415    4625    2493+
+           4627    4628
CQUAD8      1543       1    1415     419     420    1416    4627    2495+
+           4629    4630
CQUAD8      1544       1    1416     420     421    1417    4629    2497+
+           4631    4632
CQUAD8      1545       1    1417     421     422    1418    4631    2499+
+           4633    4634
CQUAD8      1546       1    1418     422     423    1419    4633    2501+
+           4635    4636
CQUAD8      1547       1    1419     423     424    1420    4635    2503+
+           4637    4638
CQUAD8      1548       1    1420     424     425    1421    4637    2505+
+           4639    4640
CQUAD8      1549       1    1421     425     426    1422    4639    2507+
+           4641    4642
CQUAD8      1550       1    1422     426     427    1423    4641    2509+
+           4643    4644
CQUAD8      1551       1    1423     427     428    1424    4643    2511+
+           4645    4646
CQUAD8      1552       1    1424     428     429    1425    4645    2513+
+           4647    4648
CQUAD8      1553       1    1425     429     430    1426    4647    2515+
+           4649    4650
CQUAD8      1554       1    1426     430     431    1427    4649    2517+
+           4651    4652
CQUAD8      1555       1    1427     431     432    1428    4651    2519+
+           4653    4654
CQUAD8      1556       1    1428     432     433    1429    4653    2521+
+           4655    4656
CQUAD8      1557       1    1429     433     434    1430    4655    2523+
+           4657    4658
CQUAD8      1558       1    1430     434     435    1431    4657    2525+
+           4659    4660
CQUAD8      1559       1    1431     435     436    1432    4659    2527+
+           4661    4662
CQUAD8      1560       1    1432     436     437    1433    4661    2529+
+           4663    4664
CQUAD8      1561       1    1433     437     438    1434    4663    2531+
+           4665    4666
CQUAD8      1562       1    1434     438     439    1435    4665    2533+
+           4667    4668
CQUAD8      1563       1    1435     439     440    1436    4667    2535+
+           4669    4670
CQUAD8      1564       1    1436     440     441    1437    4669    2537+
+           4671    4672
CQUAD8      1565       1    1437     441     442    1438    4671    2539+
+           4673    4674
CQUAD8      1566       1    1438     442     443    1439    4673    2541+
+           4675    4676
CQUAD8      1567       1    1439     443     444    1440    4675    2543+
+           4677    4678
CQUAD8      1568       1    1440     444     445    1441    4677    2545+
+           4679    4680
CQUAD8      1569       1    1441     445     446    1442    4679    2547+
+           4681    4682
CQUAD8      1570       1    1442     446     447    1443    4681    2549+
+           4683    4684
CQUAD8      1571       1    1443     447     448    1444    4683    2551+
+           4685    4686
CQUAD8      1572       1    1444     448     449    1445    4685    2553+
+           4687    4688
CQUAD8      1573       1    1445     449     450    1446    4687    2555+
+           4689    4690
CQUAD8      1574       1    1446     450     451    1447    4689    2557+
+           4691    4692
CQUAD8      1575       1    1447     451     452    1448    4691    2559+
+           4693    4694
CQUAD8      1576       1    1448     452     453    1449    4693    2561+
+           4695    4696
CQUAD8      1577       1    1449     453     454    1450    4695    2563+
+           4697    4698
CQUAD8      1578       1    1450     454     455    1451    4697    2565+
+           4699    4700
CQUAD8      1579       1    1451     455     456    1452    4699    2567+
+           4701    4702
CQUAD8      1580       1    1452     456     457    1453    4701    2569+
+           4703    4704
CQUAD8      1581       1    1453     457     458    1454    4703    2571+
+           4705    4706
CQUAD8      1582       1    1454     458     459    1455    4705    2573+
+           4707    4708
CQUAD8      1583       1    1455     459     460    1456    4707    2575+
+           4709    4710
CQUAD8      1584       1    1456     460     461    1457    4709    2577+
+           4711    4712
CQUAD8      1585       1    1457     461     462    1458    4711    2579+
+           4713    4714
CQUAD8      1586       1    1458     462     463    1195    4713    2581+
+           4184    4715
CQUAD8      1587       1    1458    1195    1194    1459    4715    4181+
+           4716    4717
CQUAD8      1588       1    1459    1194    1193    1204    4716    4189+
+           4199    4718
CQUAD8      1589       1    1468    1467    1334    1335    4719    4720+
+           4466    4721
CQUAD8      1590       1    1468    1335    1336    1469    4721    4468+
+           4722    4723
CQUAD8      1591       1    1469    1336    1337    1470    4722    4470+
+           4724    4725
CQUAD8      1592       1    1470    1337    1338    1471    4724    4472+
+           4726    4727
CQUAD8      1593       1    1471    1338    1339    1472    4726    4474+
+           4728    4729
CQUAD8      1594       1    1472    1339    1340    1473    4728    4476+
+           4730    4731
CQUAD8      1595       1    1473    1340    1341    1342    4730    4479+
+           4482    4732
CQUAD8      1596       1    1473    1342    1343    1474    4732    4484+
+           4733    4734
CQUAD8      1597       1    1474    1343    1344    1475    4733    4486+
+           4735    4736
CQUAD8      1598       1    1475    1344    1345    1460    4735    4488+
+           4737    4738
CQUAD8      1599       1    1475    1460    1461    1476    4738    4739+
+           4740    4741
CQUAD8      1600       1    1476    1461    1462    1477    4740    4742+
+           4743    4744
CQUAD8      1601       1    1477    1462    1463    1478    4743    4745+
+           4746    4747
CQUAD8      1602       1    1478    1463    1464    1479    4746    4748+
+           4749    4750
CQUAD8      1603       1    1479    1464    1465    1466    4749    4751+
+           4752    4753
CQUAD8      1604       1    1479    1466    1467    1468    4753    4754+
+           4719    4755
CQUAD8      1605       1    1476    1477    1470    1471    4744    4756+
+           4727    4757
CQUAD8      1606       1    1472    1473    1474    1480    4731    4734+
+           4758    4759
CQUAD8      1607       1    1474    1475    1476    1480    4736    4741+
+           4760    4758
CQUAD8      1608       1    1472    1480    1476    1471    4759    4760+
+           4757    4729
CQUAD8      1609       1    1477    1478    1469    1470    4747    4761+
+           4725    4756
CQUAD8      1610       1    1478    1479    1468    1469    4750    4755+
+           4723    4761
CQUAD8      1611       1    1329    1330    1323    1324    4456    4762+
+           4442    4763
CQUAD8      1612       1    1326    1327    1328    1329    4449    4451+
+           4454    4764
CQUAD8      1613       1    1326    1329    1324    1325    4764    4763+
+           4444    4447
CQUAD8      1614       1    1330    1331    1322    1323    4458    4765+
+           4440    4762
CQUAD8      1615       1    1331    1332    1321    1322    4460    4766+
+           4438    4765
CQUAD8      1616       1    1320    1321    1332    1333    4436    4766+
+           4462    4767
CQUAD8      1617       1    1485    1486    1352    1353    4768    4769+
+           4504    4770
CQUAD8      1618       1    1485    1353    1312    1313    4770    4771+
+           4420    4772
CQUAD8      1619       1    1314    1483    1485    1313    4773    4774+
+           4772    4422
CQUAD8      1620       1    1483    1484    1486    1485    4775    4776+
+           4768    4774
CQUAD8      1621       1    1484    1351    1352    1486    4777    4502+
+           4769    4776
CQUAD8      1622       1    1315    1481    1483    1314    4778    4779+
+           4773    4424
CQUAD8      1623       1    1481    1482    1484    1483    4780    4781+
+           4775    4779
CQUAD8      1624       1    1482    1350    1351    1484    4782    4500+
+           4777    4781
CQUAD8      1625       1    1318    1465    1492    1317    4783    4784+
+           4785    4430
CQUAD8      1626       1    1465    1464    1491    1492    4751    4786+
+           4787    4784
CQUAD8      1627       1    1464    1463    1487    1491    4748    4788+
+           4789    4786
CQUAD8      1628       1    1490    1481    1315    1494    4790    4778+
+           4791    4792
CQUAD8      1629       1    1490    1494    1493    1489    4792    4793+
+           4794    4795
CQUAD8      1630       1    1495    1316    1317    1492    4796    4428+
+           4785    4797
CQUAD8      1631       1    1495    1492    1491    1496    4797    4787+
+           4798    4799
CQUAD8      1632       1    1491    1487    1488    1496    4789    4800+
+           4801    4798
CQUAD8      1633       1    1348    1349    1498    1497    4496    4802+
+           4803    4804
CQUAD8      1634       1    1349    1350    1482    1498    4498    4782+
+           4805    4802
CQUAD8      1635       1    1498    1482    1481    1490    4805    4780+
+           4790    4806
CQUAD8      1636       1    1497    1498    1490    1489    4803    4806+
+           4795    4807
CQUAD8      1637       1    1489    1488    1500    1497    4808    4809+
+           4810    4807
CQUAD8      1638       1    1488    1487    1499    1500    4800    4811+
+           4812    4809
CQUAD8      1639       1    1487    1463    1462    1499    4788    4745+
+           4813    4811
CQUAD8      1640       1    1501    1502    1347    1348    4814    4815+
+           4494    4816
CQUAD8      1641       1    1501    1348    1497    1500    4816    4804+
+           4810    4817
CQUAD8      1642       1    1500    1499    1503    1501    4812    4818+
+           4819    4817
CQUAD8      1643       1    1499    1462    1461    1503    4813    4742+
+           4820    4818
CQUAD8      1644       1    1503    1461    1460    1504    4820    4739+
+           4821    4822
CQUAD8      1645       1    1504    1460    1345    1346    4821    4737+
+           4490    4823
CQUAD8      1646       1    1502    1504    1346    1347    4824    4823+
+           4492    4815
CQUAD8      1647       1    1501    1503    1504    1502    4819    4822+
+           4824    4814
CQUAD8      1648       1    1210    1211    1212    1517    4214    4218+
+           4825    4826
CQUAD8      1649       1    1215    1508    1519    1214    4827    4828+
+           4829    4224
CQUAD8      1650       1    1508    1509    1518    1519    4830    4831+
+           4832    4828
CQUAD8      1651       1    1509    1510    1515    1518    4833    4834+
+           4835    4831
CQUAD8      1652       1    1520    1518    1515    1516    4836    4835+
+           4837    4838
CQUAD8      1653       1    1520    1516    1207    1208    4838    4839+
+           4208    4840
CQUAD8      1654       1    1514    1459    1204    1523    4841    4718+
+           4842    4843
CQUAD8      1655       1    1204    1205    1522    1523    4202    4844+
+           4845    4842
CQUAD8      1656       1    1514    1523    1522    1513    4843    4845+
+           4846    4847
CQUAD8      1657       1    1521    1512    1513    1522    4848    4849+
+           4846    4850
CQUAD8      1658       1    1521    1522    1205    1206    4850    4844+
+           4204    4851
CQUAD8      1659       1    1524    1206    1207    1516    4852    4206+
+           4839    4853
CQUAD8      1660       1    1524    1516    1515    1525    4853    4837+
+           4854    4855
CQUAD8      1661       1    1515    1510    1511    1525    4834    4856+
+           4857    4854
CQUAD8      1662       1    1217    1218    1531    1532    4230    4858+
+           4859    4860
CQUAD8      1663       1    1530    1532    1531    1529    4861    4859+
+           4862    4863
CQUAD8      1664       1    1528    1529    1531    1533    4864    4862+
+           4865    4866
CQUAD8      1665       1    1219    1533    1531    1218    4867    4865+
+           4858    4232
CQUAD8      1666       1    1507    1448    1449    1534    4868    4696+
+           4869    4870
CQUAD8      1667       1    1535    1529    1528    1536    4871    4864+
+           4872    4873
CQUAD8      1668       1    1535    1536    1507    1534    4873    4874+
+           4870    4875
CQUAD8      1669       1    1449    1450    1537    1534    4698    4876+
+           4877    4869
CQUAD8      1670       1    1450    1451    1526    1537    4700    4878+
+           4879    4876
CQUAD8      1671       1    1537    1526    1527    1538    4879    4880+
+           4881    4882
CQUAD8      1672       1    1535    1538    1530    1529    4883    4884+
+           4863    4871
CQUAD8      1673       1    1534    1537    1538    1535    4877    4882+
+           4883    4875
CQUAD8      1674       1    1457    1458    1459    1514    4714    4717+
+           4841    4885
CQUAD8      1675       1    1543    1544    1456    1457    4886    4887+
+           4712    4888
CQUAD8      1676       1    1543    1457    1514    1513    4888    4885+
+           4847    4889
CQUAD8      1677       1    1512    1541    1543    1513    4890    4891+
+           4889    4849
CQUAD8      1678       1    1541    1542    1544    1543    4892    4893+
+           4886    4891
CQUAD8      1679       1    1542    1455    1456    1544    4894    4710+
+           4887    4893
CQUAD8      1680       1    1512    1511    1545    1541    4895    4896+
+           4897    4890
CQUAD8      1681       1    1511    1510    1539    1545    4856    4898+
+           4899    4896
CQUAD8      1682       1    1545    1539    1540    1546    4899    4900+
+           4901    4902
CQUAD8      1683       1    1546    1540    1453    1454    4901    4903+
+           4706    4904
CQUAD8      1684       1    1542    1546    1454    1455    4905    4904+
+           4708    4894
CQUAD8      1685       1    1541    1545    1546    1542    4897    4902+
+           4905    4892
CQUAD8      1686       1    1510    1509    1548    1539    4833    4906+
+           4907    4898
CQUAD8      1687       1    1509    1508    1547    1548    4830    4908+
+           4909    4906
CQUAD8      1688       1    1508    1215    1216    1547    4827    4226+
+           4910    4908
CQUAD8      1689       1    1540    1539    1548    1549    4900    4907+
+           4911    4912
CQUAD8      1690       1    1550    1549    1548    1547    4913    4911+
+           4909    4914
CQUAD8      1691       1    1448    1507    1552    1447    4868    4915+
+           4916    4694
CQUAD8      1692       1    1226    1227    1554    1553    4248    4917+
+           4918    4919
CQUAD8      1693       1    1227    1228    1505    1554    4250    4920+
+           4921    4917
CQUAD8      1694       1    1554    1505    1438    1439    4921    4922+
+           4676    4923
CQUAD8      1695       1    1553    1554    1439    1440    4918    4923+
+           4678    4924
CQUAD8      1696       1    1555    1225    1226    1553    4925    4246+
+           4919    4926
CQUAD8      1697       1    1555    1553    1440    1441    4926    4924+
+           4680    4927
CQUAD8      1698       1    1556    1224    1225    1555    4928    4244+
+           4925    4929
CQUAD8      1699       1    1556    1555    1441    1442    4929    4927+
+           4682    4930
CQUAD8      1700       1    1557    1223    1224    1556    4931    4242+
+           4928    4932
CQUAD8      1701       1    1557    1556    1442    1443    4932    4930+
+           4684    4933
CQUAD8      1702       1    1558    1222    1223    1557    4934    4240+
+           4931    4935
CQUAD8      1703       1    1558    1557    1443    1444    4935    4933+
+           4686    4936
CQUAD8      1704       1    1220    1221    1561    1562    4236    4937+
+           4938    4939
CQUAD8      1705       1    1563    1446    1447    1552    4940    4692+
+           4916    4941
CQUAD8      1706       1    1563    1552    1551    1560    4941    4942+
+           4943    4944
CQUAD8      1707       1    1445    1446    1563    1564    4690    4940+
+           4945    4946
CQUAD8      1708       1    1559    1564    1563    1560    4947    4945+
+           4944    4948
CQUAD8      1709       1    1365    1366    1568    1567    4530    4949+
+           4950    4951
CQUAD8      1710       1    1366    1367    1569    1568    4532    4952+
+           4953    4949
CQUAD8      1711       1    1367    1368    1570    1569    4534    4954+
+           4955    4952
CQUAD8      1712       1    1368    1369    1571    1570    4536    4956+
+           4957    4954
CQUAD8      1713       1    1369    1370    1572    1571    4538    4958+
+           4959    4956
CQUAD8      1714       1    1370    1371    1573    1572    4540    4960+
+           4961    4958
CQUAD8      1715       1    1371    1372    1574    1573    4542    4962+
+           4963    4960
CQUAD8      1716       1    1372    1373    1575    1574    4544    4964+
+           4965    4962
CQUAD8      1717       1    1373    1374    1576    1575    4546    4966+
+           4967    4964
CQUAD8      1718       1    1374    1375    1566    1576    4548    4968+
+           4969    4966
CQUAD8      1719       1    1576    1566    1291    1292    4969    4970+
+           4378    4971
CQUAD8      1720       1    1575    1576    1292    1293    4967    4971+
+           4380    4972
CQUAD8      1721       1    1574    1575    1293    1294    4965    4972+
+           4382    4973
CQUAD8      1722       1    1573    1574    1294    1295    4963    4973+
+           4384    4974
CQUAD8      1723       1    1572    1573    1295    1296    4961    4974+
+           4386    4975
CQUAD8      1724       1    1571    1572    1296    1297    4959    4975+
+           4388    4976
CQUAD8      1725       1    1570    1571    1297    1298    4957    4976+
+           4390    4977
CQUAD8      1726       1    1569    1570    1298    1299    4955    4977+
+           4392    4978
CQUAD8      1727       1    1568    1569    1299    1300    4953    4978+
+           4394    4979
CQUAD8      1728       1    1567    1568    1300    1301    4950    4979+
+           4396    4980
CQUAD8      1729       1    1361    1362    1578    1577    4522    4981+
+           4982    4983
CQUAD8      1730       1    1362    1363    1579    1578    4524    4984+
+           4985    4981
CQUAD8      1731       1    1363    1364    1580    1579    4526    4986+
+           4987    4984
CQUAD8      1732       1    1364    1365    1567    1580    4528    4951+
+           4988    4986
CQUAD8      1733       1    1580    1567    1301    1302    4988    4980+
+           4398    4989
CQUAD8      1734       1    1579    1580    1302    1303    4987    4989+
+           4400    4990
CQUAD8      1735       1    1578    1579    1303    1304    4985    4990+
+           4402    4991
CQUAD8      1736       1    1577    1578    1304    1305    4982    4991+
+           4404    4992
CQUAD8      1737       1    1581    1360    1361    1577    4993    4520+
+           4983    4994
CQUAD8      1738       1    1581    1577    1305    1306    4994    4992+
+           4406    4995
CQUAD8      1739       1    1582    1359    1360    1581    4996    4518+
+           4993    4997
CQUAD8      1740       1    1582    1581    1306    1307    4997    4995+
+           4408    4998
CQUAD8      1741       1    1583    1358    1359    1582    4999    4516+
+           4996    5000
CQUAD8      1742       1    1583    1582    1307    1308    5000    4998+
+           4410    5001
CQUAD8      1743       1    1584    1357    1358    1583    5002    4514+
+           4999    5003
CQUAD8      1744       1    1584    1583    1308    1309    5003    5001+
+           4412    5004
CQUAD8      1745       1    1585    1356    1357    1584    5005    4512+
+           5002    5006
CQUAD8      1746       1    1585    1584    1309    1310    5006    5004+
+           4414    5007
CQUAD8      1747       1    1312    1353    1354    1587    4771    4506+
+           5008    5009
CQUAD8      1748       1    1354    1355    1586    1587    4508    5010+
+           5011    5008
CQUAD8      1749       1    1312    1587    1586    1311    5009    5011+
+           5012    4418
CQUAD8      1750       1    1585    1310    1311    1586    5007    4416+
+           5012    5013
CQUAD8      1751       1    1585    1586    1355    1356    5013    5010+
+           4510    5005
CQUAD8      1752       1    1375    1376    1588    1566    4550    5014+
+           5015    4968
CQUAD8      1753       1    1376    1377    1589    1588    4552    5016+
+           5017    5014
CQUAD8      1754       1    1377    1378    1590    1589    4554    5018+
+           5019    5016
CQUAD8      1755       1    1378    1379    1591    1590    4556    5020+
+           5021    5018
CQUAD8      1756       1    1379    1380    1592    1591    4558    5022+
+           5023    5020
CQUAD8      1757       1    1380    1381    1593    1592    4560    5024+
+           5025    5022
CQUAD8      1758       1    1381    1382    1594    1593    4562    5026+
+           5027    5024
CQUAD8      1759       1    1382    1383    1595    1594    4564    5028+
+           5029    5026
CQUAD8      1760       1    1383    1384    1596    1595    4566    5030+
+           5031    5028
CQUAD8      1761       1    1384    1385    1597    1596    4568    5032+
+           5033    5030
CQUAD8      1762       1    1385    1386    1598    1597    4570    5034+
+           5035    5032
CQUAD8      1763       1    1386    1387    1599    1598    4572    5036+
+           5037    5034
CQUAD8      1764       1    1387    1388    1600    1599    4574    5038+
+           5039    5036
CQUAD8      1765       1    1388    1389    1601    1600    4576    5040+
+           5041    5038
CQUAD8      1766       1    1389    1390    1602    1601    4578    5042+
+           5043    5040
CQUAD8      1767       1    1390    1391    1603    1602    4580    5044+
+           5045    5042
CQUAD8      1768       1    1391    1392    1604    1603    4582    5046+
+           5047    5044
CQUAD8      1769       1    1392    1393    1605    1604    4584    5048+
+           5049    5046
CQUAD8      1770       1    1393    1394    1606    1605    4586    5050+
+           5051    5048
CQUAD8      1771       1    1394    1395    1607    1606    4588    5052+
+           5053    5050
CQUAD8      1772       1    1395    1396    1565    1607    4590    5054+
+           5055    5052
CQUAD8      1773       1    1607    1565    1270    1271    5055    5056+
+           4336    5057
CQUAD8      1774       1    1606    1607    1271    1272    5053    5057+
+           4338    5058
CQUAD8      1775       1    1605    1606    1272    1273    5051    5058+
+           4340    5059
CQUAD8      1776       1    1604    1605    1273    1274    5049    5059+
+           4342    5060
CQUAD8      1777       1    1603    1604    1274    1275    5047    5060+
+           4344    5061
CQUAD8      1778       1    1602    1603    1275    1276    5045    5061+
+           4346    5062
CQUAD8      1779       1    1601    1602    1276    1277    5043    5062+
+           4348    5063
CQUAD8      1780       1    1600    1601    1277    1278    5041    5063+
+           4350    5064
CQUAD8      1781       1    1599    1600    1278    1279    5039    5064+
+           4352    5065
CQUAD8      1782       1    1598    1599    1279    1280    5037    5065+
+           4354    5066
CQUAD8      1783       1    1597    1598    1280    1281    5035    5066+
+           4356    5067
CQUAD8      1784       1    1596    1597    1281    1282    5033    5067+
+           4358    5068
CQUAD8      1785       1    1595    1596    1282    1283    5031    5068+
+           4360    5069
CQUAD8      1786       1    1594    1595    1283    1284    5029    5069+
+           4362    5070
CQUAD8      1787       1    1593    1594    1284    1285    5027    5070+
+           4364    5071
CQUAD8      1788       1    1592    1593    1285    1286    5025    5071+
+           4366    5072
CQUAD8      1789       1    1591    1592    1286    1287    5023    5072+
+           4368    5073
CQUAD8      1790       1    1590    1591    1287    1288    5021    5073+
+           4370    5074
CQUAD8      1791       1    1589    1590    1288    1289    5019    5074+
+           4372    5075
CQUAD8      1792       1    1588    1589    1289    1290    5017    5075+
+           4374    5076
CQUAD8      1793       1    1566    1588    1290    1291    5015    5076+
+           4376    4970
CQUAD8      1794       1    1396    1397    1608    1565    4592    5077+
+           5078    5054
CQUAD8      1795       1    1397    1398    1609    1608    4594    5079+
+           5080    5077
CQUAD8      1796       1    1398    1399    1610    1609    4596    5081+
+           5082    5079
CQUAD8      1797       1    1399    1400    1611    1610    4598    5083+
+           5084    5081
CQUAD8      1798       1    1400    1401    1612    1611    4600    5085+
+           5086    5083
CQUAD8      1799       1    1401    1402    1613    1612    4602    5087+
+           5088    5085
CQUAD8      1800       1    1402    1403    1614    1613    4604    5089+
+           5090    5087
CQUAD8      1801       1    1403    1404    1615    1614    4606    5091+
+           5092    5089
CQUAD8      1802       1    1404    1405    1616    1615    4608    5093+
+           5094    5091
CQUAD8      1803       1    1405    1406    1617    1616    4610    5095+
+           5096    5093
CQUAD8      1804       1    1406    1407    1618    1617    4612    5097+
+           5098    5095
CQUAD8      1805       1    1407    1408    1619    1618    4614    5099+
+           5100    5097
CQUAD8      1806       1    1408    1409    1620    1619    4616    5101+
+           5102    5099
CQUAD8      1807       1    1409    1410    1621    1620    4618    5103+
+           5104    5101
CQUAD8      1808       1    1410    1411    1622    1621    4620    5105+
+           5106    5103
CQUAD8      1809       1    1411    1412    1623    1622    4622    5107+
+           5108    5105
CQUAD8      1810       1    1412    1413    1624    1623    4624    5109+
+           5110    5107
CQUAD8      1811       1    1413    1414    1625    1624    4626    5111+
+           5112    5109
CQUAD8      1812       1    1414    1415    1626    1625    4628    5113+
+           5114    5111
CQUAD8      1813       1    1415    1416    1627    1626    4630    5115+
+           5116    5113
CQUAD8      1814       1    1416    1417    1628    1627    4632    5117+
+           5118    5115
CQUAD8      1815       1    1417    1418    1629    1628    4634    5119+
+           5120    5117
CQUAD8      1816       1    1418    1419    1630    1629    4636    5121+
+           5122    5119
CQUAD8      1817       1    1419    1420    1631    1630    4638    5123+
+           5124    5121
CQUAD8      1818       1    1420    1421    1632    1631    4640    5125+
+           5126    5123
CQUAD8      1819       1    1421    1422    1633    1632    4642    5127+
+           5128    5125
CQUAD8      1820       1    1422    1423    1634    1633    4644    5129+
+           5130    5127
CQUAD8      1821       1    1423    1424    1635    1634    4646    5131+
+           5132    5129
CQUAD8      1822       1    1424    1425    1636    1635    4648    5133+
+           5134    5131
CQUAD8      1823       1    1425    1426    1637    1636    4650    5135+
+           5136    5133
CQUAD8      1824       1    1426    1427    1638    1637    4652    5137+
+           5138    5135
CQUAD8      1825       1    1427    1428    1639    1638    4654    5139+
+           5140    5137
CQUAD8      1826       1    1428    1429    1640    1639    4656    5141+
+           5142    5139
CQUAD8      1827       1    1429    1430    1641    1640    4658    5143+
+           5144    5141
CQUAD8      1828       1    1430    1431    1642    1641    4660    5145+
+           5146    5143
CQUAD8      1829       1    1431    1432    1643    1642    4662    5147+
+           5148    5145
CQUAD8      1830       1    1432    1433    1644    1643    4664    5149+
+           5150    5147
CQUAD8      1831       1    1433    1434    1645    1644    4666    5151+
+           5152    5149
CQUAD8      1832       1    1434    1435    1646    1645    4668    5153+
+           5154    5151
CQUAD8      1833       1    1435    1436    1647    1646    4670    5155+
+           5156    5153
CQUAD8      1834       1    1436    1437    1648    1647    4672    5157+
+           5158    5155
CQUAD8      1835       1    1437    1438    1505    1648    4674    4922+
+           5159    5157
CQUAD8      1836       1    1648    1505    1228    1229    5159    4920+
+           4252    5160
CQUAD8      1837       1    1647    1648    1229    1230    5158    5160+
+           4254    5161
CQUAD8      1838       1    1646    1647    1230    1231    5156    5161+
+           4256    5162
CQUAD8      1839       1    1645    1646    1231    1232    5154    5162+
+           4258    5163
CQUAD8      1840       1    1644    1645    1232    1233    5152    5163+
+           4260    5164
CQUAD8      1841       1    1643    1644    1233    1234    5150    5164+
+           4262    5165
CQUAD8      1842       1    1642    1643    1234    1235    5148    5165+
+           4264    5166
CQUAD8      1843       1    1641    1642    1235    1236    5146    5166+
+           4266    5167
CQUAD8      1844       1    1640    1641    1236    1237    5144    5167+
+           4268    5168
CQUAD8      1845       1    1639    1640    1237    1238    5142    5168+
+           4270    5169
CQUAD8      1846       1    1638    1639    1238    1239    5140    5169+
+           4272    5170
CQUAD8      1847       1    1637    1638    1239    1240    5138    5170+
+           4274    5171
CQUAD8      1848       1    1636    1637    1240    1241    5136    5171+
+           4276    5172
CQUAD8      1849       1    1635    1636    1241    1242    5134    5172+
+           4278    5173
CQUAD8      1850       1    1634    1635    1242    1243    5132    5173+
+           4280    5174
CQUAD8      1851       1    1633    1634    1243    1244    5130    5174+
+           4282    5175
CQUAD8      1852       1    1632    1633    1244    1245    5128    5175+
+           4284    5176
CQUAD8      1853       1    1631    1632    1245    1246    5126    5176+
+           4286    5177
CQUAD8      1854       1    1630    1631    1246    1247    5124    5177+
+           4288    5178
CQUAD8      1855       1    1629    1630    1247    1248    5122    5178+
+           4290    5179
CQUAD8      1856       1    1628    1629    1248    1249    5120    5179+
+           4292    5180
CQUAD8      1857       1    1627    1628    1249    1250    5118    5180+
+           4294    5181
CQUAD8      1858       1    1626    1627    1250    1251    5116    5181+
+           4296    5182
CQUAD8      1859       1    1625    1626    1251    1252    5114    5182+
+           4298    5183
CQUAD8      1860       1    1624    1625    1252    1253    5112    5183+
+           4300    5184
CQUAD8      1861       1    1623    1624    1253    1254    5110    5184+
+           4302    5185
CQUAD8      1862       1    1622    1623    1254    1255    5108    5185+
+           4304    5186
CQUAD8      1863       1    1621    1622    1255    1256    5106    5186+
+           4306    5187
CQUAD8      1864       1    1620    1621    1256    1257    5104    5187+
+           4308    5188
CQUAD8      1865       1    1619    1620    1257    1258    5102    5188+
+           4310    5189
CQUAD8      1866       1    1618    1619    1258    1259    5100    5189+
+           4312    5190
CQUAD8      1867       1    1617    1618    1259    1260    5098    5190+
+           4314    5191
CQUAD8      1868       1    1616    1617    1260    1261    5096    5191+
+           4316    5192
CQUAD8      1869       1    1615    1616    1261    1262    5094    5192+
+           4318    5193
CQUAD8      1870       1    1614    1615    1262    1263    5092    5193+
+           4320    5194
CQUAD8      1871       1    1613    1614    1263    1264    5090    5194+
+           4322    5195
CQUAD8      1872       1    1612    1613    1264    1265    5088    5195+
+           4324    5196
CQUAD8      1873       1    1611    1612    1265    1266    5086    5196+
+           4326    5197
CQUAD8      1874       1    1610    1611    1266    1267    5084    5197+
+           4328    5198
CQUAD8      1875       1    1609    1610    1267    1268    5082    5198+
+           4330    5199
CQUAD8      1876       1    1608    1609    1268    1269    5080    5199+
+           4332    5200
CQUAD8      1877       1    1565    1608    1269    1270    5078    5200+
+           4334    5056
CQUAD8      1878       1     507     819     823     506    3292    5201+
+           3304    2669
CQUAD8      1879       1     798     797     715     716    5202    3236+
+           3087    3237
CQUAD8      1880       1     798     796     657     658    3239    5203+
+           2971    5204
CQUAD8      1881       1     658     659     797     798    2973    3235+
+           5202    5204
CQUAD8      1882       1     800     718     719     799    5205    3093+
+           3243    3246
CQUAD8      1883       1     796     717     718     800    3238    3091+
+           5205    5206
CQUAD8      1884       1     800     656     657     796    3245    2969+
+           5203    5206
CQUAD8      1885       1     812     809     721     722    5207    3271+
+           3099    3274
CQUAD8      1886       1     811     648     649     810    3272    2953+
+           5208    5209
CQUAD8      1887       1     811     810     802     801    5209    5210+
+           3269    3273
CQUAD8      1888       1     810     723     724     802    3275    3103+
+           3256    5210
CQUAD8      1889       1     812     810     649     650    3276    5208+
+           2955    5211
CQUAD8      1890       1     650     651     809     812    2957    3270+
+           5207    5211
CQUAD8      1891       1     816     739     740     815    5212    3135+
+           3279    3282
CQUAD8      1892       1     814     738     739     816    3288    3133+
+           5212    5213
CQUAD8      1893       1     816     498     499     814    3281    2653+
+           5214    5213
CQUAD8      1894       1     818     817     736     737    5215    3286+
+           3129    3287
CQUAD8      1895       1     818     814     499     500    3289    5214+
+           2655    5216
CQUAD8      1896       1     500     501     817     818    2657    3285+
+           5215    5216
CQUAD8      1897       1     823     819     732     733    5201    3300+
+           3121    5217
CQUAD8      1898       1     733     734     822     823    3123    3302+
+           3305    5217
CQUAD8      1899       1     828     730     731     825    5218    3117+
+           3306    3312
CQUAD8      1900       1     826     729     730     828    5219    3115+
+           5218    5220
CQUAD8      1901       1     828     640     641     826    3311    2937+
+           5221    5220
CQUAD8      1902       1     849     850     865    1649    3361    5222+
+           5223    5224
CQUAD8      1903       1     865     866     867    1649    5225    3385+
+           5226    5223
CQUAD8      1904       1     867     848     849    1649    3383    3359+
+           5224    5226
CQUAD8      1905       1     851     879     865     850    3418    5227+
+           5222    3363
CQUAD8      1906       1     879     864     866     865    5228    3388+
+           5225    5227
CQUAD8      1907       1     860     859     880    1650    3396    3421+
+           5229    5230
CQUAD8      1908       1     880     881     888    1650    3424    3441+
+           5231    5229
CQUAD8      1909       1     888     861     860    1650    3439    3400+
+           5230    5231
CQUAD8      1910       1     864     876     843     844    5232    3413+
+           3347    3387
CQUAD8      1911       1     897     896     632     633    5233    5234+
+           2921    3447
CQUAD8      1912       1     896     899     631     632    5235    3453+
+           2919    5234
CQUAD8      1913       1     896     900     898     899    5236    3458+
+           3448    5235
CQUAD8      1914       1     679     680     900     896    3015    3454+
+           5236    5237
CQUAD8      1915       1     929     930     941    1651    3532    3558+
+           5238    5239
CQUAD8      1916       1     941     939     940    1651    3559    3552+
+           5240    5238
CQUAD8      1917       1     940     928     929    1651    3550    3530+
+           5239    5240
CQUAD8      1918       1    1150    1147     742     743    5241    4066+
+           3141    4070
CQUAD8      1919       1    1149     490     491    1148    4068    2637+
+           5242    5243
CQUAD8      1920       1    1149    1148    1145    1146    5243    5244+
+           4094    4069
CQUAD8      1921       1    1148     744     745    1145    4071    3145+
+           4082    5244
CQUAD8      1922       1    1150    1148     491     492    4072    5242+
+           2639    5245
CQUAD8      1923       1     492     493    1147    1150    2641    4065+
+           5241    5245
CQUAD8      1924       1    1160    1157     754     755    5246    4106+
+           3165    4098
CQUAD8      1925       1    1161     757     758    1158    5247    3171+
+           4095    4102
CQUAD8      1926       1    1160    1159     475     476    4100    5248+
+           2607    5249
CQUAD8      1927       1     476     477    1157    1160    2609    4105+
+           5246    5249
CQUAD8      1928       1    1159     756     757    1161    4099    3169+
+           5247    5250
CQUAD8      1929       1    1161     474     475    1159    4101    2605+
+           5248    5250
CQUAD8      1930       1    1189    1188    1168    1167    5251    5252+
+           4133    4161
CQUAD8      1931       1    1188     705     706    1168    5253    3067+
+           4135    5252
CQUAD8      1932       1    1190    1186    1187    1188    4164    4173+
+           5254    5255
CQUAD8      1933       1     704     705    1188    1187    3065    5253+
+           5254    4172
CQUAD8      1934       1    1198    1197     760     761    4178    4177+
+           3177    5256
CQUAD8      1935       1    1196     467     468    1198    4194    2591+
+           4179    5257
CQUAD8      1936       1    1198     761     762    1196    5256    3179+
+           4196    5257
CQUAD8      1937       1    1199     764     765    1202    4198    3185+
+           4186    5258
CQUAD8      1938       1    1199    1202    1200    1201    5258    4190+
+           4183    5259
CQUAD8      1939       1     465    1199    1201     464    4193    5259+
+           4185    2585
CQUAD8      1940       1    1220    1562    1533    1219    4939    5260+
+           4867    4234
CQUAD8      1941       1    1562    1506    1528    1533    5261    5262+
+           4866    5260
CQUAD8      1942       1    1319    1466    1465    1318    5263    4752+
+           4783    4432
CQUAD8      1943       1    1319    1334    1467    1466    5264    4720+
+           4754    5263
CQUAD8      1944       1    1320    1333    1334    1319    4767    4464+
+           5264    4434
CQUAD8      1945       1    1496    1488    1489    1493    4801    4808+
+           4794    5265
CQUAD8      1946       1    1551    1552    1507    1536    4942    4915+
+           4874    5266
CQUAD8      1947       1    1536    1528    1506    1551    4872    5262+
+           5267    5266
CQUAD8      1948       1    1652    1519    1518    1520    5268    4832+
+           4836    5269
CQUAD8      1949       1    1213    1214    1519    1652    4222    4829+
+           5268    5270
CQUAD8      1950       1    1525    1511    1512    1521    4857    4895+
+           4848    5271
CQUAD8      1951       1    1525    1521    1206    1524    5271    4851+
+           4852    4855
CQUAD8      1952       1    1550    1451    1452    1549    5272    4702+
+           5273    4913
CQUAD8      1953       1    1549    1452    1453    1540    5273    4704+
+           4903    4912
CQUAD8      1954       1    1526    1451    1550    1527    4878    5272+
+           5274    4880
CQUAD8      1955       1    1558    1444    1445    1564    4936    4688+
+           4946    5275
CQUAD8      1956       1    1558    1564    1559    1561    5275    4947+
+           5276    5277
CQUAD8      1957       1    1222    1558    1561    1221    4934    5277+
+           4937    4238
CQUAD8      1958       1    1506    1562    1561    1559    5261    4938+
+           5276    5278
CQUAD8      1959       1    1559    1560    1551    1506    4948    4943+
+           5267    5278
CQUAD8      1960       1     827     795     794     826    3310    3261+
+           5279    5280
CQUAD8      1961       1     827     826     641     642    5280    5221+
+           2939    3309
CQUAD8      1962       1     728     729     826     794    3113    5219+
+           5279    3259
CQUAD8      1963       1     864     879     878     876    5228    3420+
+           5281    5232
CQUAD8      1964       1     876     878     877     863    5281    5282+
+           3417    3414
CQUAD8      1965       1     878     852     853     877    3419    3367+
+           5283    5282
CQUAD8      1966       1     877     853     869     868    5283    3409+
+           3406    3415
CQUAD8      1967       1     678     679     896     897    3013    5237+
+           5233    5284
CQUAD8      1968       1     677     678     897     824    3011    5284+
+           3446    5285
CQUAD8      1969       1     676     677     824     829    3009    5285+
+           3317    3315
CQUAD8      1970       1     481     482    1164     751    2619    5286+
+           4111    5287
CQUAD8      1971       1     751     752     480     481    3159    4112+
+           2617    5287
CQUAD8      1972       1    1163    1144    1143    1162    4108    4087+
+           5288    5289
CQUAD8      1973       1     749     750    1162    1143    3155    4110+
+           5288    4085
CQUAD8      1974       1     663     664    1173     712    2983    5290+
+           4119    5291
CQUAD8      1975       1     712     713     662     663    3081    4113+
+           2981    5291
CQUAD8      1976       1    1172    1169    1170    1171    4116    4141+
+           5292    5293
CQUAD8      1977       1     710     711    1171    1170    3077    4118+
+           5292    4140
CQUAD8      1978       1    1189     672     673    1653    4160    3001+
+           5294    5295
CQUAD8      1979       1     673     674    1190    1653    3003    4162+
+           5296    5294
CQUAD8      1980       1    1190    1188    1189    1653    5255    5251+
+           5295    5296
CQUAD8      1981       1    1654    1217    1532    1530    5297    4860+
+           4861    5298
CQUAD8      1982       1    1654    1530    1538    1527    5298    4884+
+           4881    5299
CQUAD8      1983       1    1654    1527    1550    1547    5299    5274+
+           4914    5300
CQUAD8      1984       1    1654    1547    1216    1217    5300    4910+
+           4228    5297
CQUAD8      1985       1    1495    1496    1493    1494    4799    5265+
+           4793    5301
CQUAD8      1986       1    1494    1315    1316    1495    4791    4426+
+           4796    5301
CQUAD8      1987       1    1517    1212    1213    1652    4825    4220+
+           5270    5302
CQUAD8      1988       1    1517    1652    1209    1210    5302    5303+
+           4212    4826
CQUAD8      1989       1    1652    1520    1208    1209    5269    4840+
+           4210    5303
CQUAD8      1990       1    1164     482     483    1655    5286    2621+
+           5304    5305
CQUAD8      1991       1     483     484    1163    1655    2623    4107+
+           5306    5304
CQUAD8      1992       1    1163    1162    1164    1655    5289    4109+
+           5305    5306
CQUAD8      1993       1    1173     664     665    1656    5290    2985+
+           5307    5308
CQUAD8      1994       1     665     666    1172    1656    2987    4114+
+           5309    5307
CQUAD8      1995       1    1172    1171    1173    1656    5293    4117+
+           5308    5309
$*
$* PROPERTY CARDS
$*
$*  Property: PSHELL1
PSHELL         1       13.000000       11.000000       10.833333  0.0000
$*
$* MATERIAL CARDS
$*
$*  Material: Aluminum_2014::link_FEM_input_fem3::[1]
MAT1           17.3119+7        0.3300002.7940-62.1600-5
MATT1          1       1               2               3
TABLEM1        1                       1                                +
+        20.00007.3119+7 21.11007.3119+7 23.89007.3119+7 37.78007.3119+7+
+        51.67007.3119+7 65.56007.2429+7 79.44007.2429+7 93.33007.1739+7+
+       107.22007.1049+7121.11007.0359+7135.00006.9670+7148.89006.8980+7+
+       162.78006.8290+7176.67006.6910+7190.56006.6221+7204.44006.4841+7+
+       218.33006.3461+7232.22006.1392+7246.11006.0012+7260.00005.8633+7+
+       273.89005.7253+7287.78005.5184+7301.67005.3804+7315.56005.1735+7+
+       329.44004.9665+7343.33004.7596+7357.22004.6216+7371.11004.4147+7+
+           ENDT
TABLEM1        2                       1                                +
+        20.00000.330000 21.11000.330000    ENDT
TABLEM1        3                       1                                +
+        20.00002.1600-5 93.33002.2500-5107.22002.2662-5121.11002.2824-5+
+       135.00002.2968-5148.89002.3130-5162.78002.3274-5176.67002.3418-5+
+       190.56002.3544-5204.44002.3688-5218.33002.3814-5232.22002.3958-5+
+       246.11002.4066-5260.00002.4192-5273.89002.4300-5287.78002.4408-5+
+       301.67002.4498-5315.56002.4606-5329.44002.4696-5343.33002.4786-5+
+       357.22002.4876-5371.11002.4984-5385.00002.5110-5398.89002.5254-5+
+       412.78002.5398-5426.67002.5560-5    ENDT
$*
$* LOAD AND CONSTRAINT CARDS
$*
$*  Constraint: Fixed(1)
SPC            1    5385  123456  0.0000
SPC            1    5386  123456  0.0000
SPC            1    5387  123456  0.0000
SPC            1    5388  123456  0.0000
SPC            1    5389  123456  0.0000
SPC            1    5390  123456  0.0000
SPC            1    5391  123456  0.0000
SPC            1    5392  123456  0.0000
SPC            1    5393  123456  0.0000
SPC            1    5394  123456  0.0000
SPC            1    5395  123456  0.0000
SPC            1    5396  123456  0.0000
SPC            1    5397  123456  0.0000
SPC            1    5398  123456  0.0000
SPC            1    5399  123456  0.0000
SPC            1    5400  123456  0.0000
SPC            1    5401  123456  0.0000
SPC            1    5402  123456  0.0000
SPC            1    5403  123456  0.0000
SPC            1    5404  123456  0.0000
SPC            1    5405  123456  0.0000
SPC            1    5406  123456  0.0000
SPC            1    5407  123456  0.0000
SPC            1    5408  123456  0.0000
SPC            1    5409  123456  0.0000
SPC            1    5410  123456  0.0000
SPC            1    5411  123456  0.0000
SPC            1    5412  123456  0.0000
SPC            1    5413  123456  0.0000
SPC            1    5414  123456  0.0000
SPC            1    5415  123456  0.0000
SPC            1    5416  123456  0.0000
SPC            1    5417  123456  0.0000
SPC            1    5418  123456  0.0000
SPC            1    5419  123456  0.0000
SPC            1    5420  123456  0.0000
SPC            1    5421  123456  0.0000
SPC            1    5422  123456  0.0000
SPC            1    5423  123456  0.0000
SPC            1    5424  123456  0.0000
SPC            1    5425  123456  0.0000
SPC            1    5426  123456  0.0000
SPC            1    5427  123456  0.0000
SPC            1    5428  123456  0.0000
SPC            1    5429  123456  0.0000
SPC            1    5430  123456  0.0000
SPC            1    5431  123456  0.0000
SPC            1    5432  123456  0.0000
SPC            1    5433  123456  0.0000
SPC            1    5434  123456  0.0000
SPC            1    5435  123456  0.0000
SPC            1    5436  123456  0.0000
SPC            1    5437  123456  0.0000
SPC            1    5438  123456  0.0000
SPC            1    5439  123456  0.0000
SPC            1    5440  123456  0.0000
SPC            1    5441  123456  0.0000
SPC            1    5442  123456  0.0000
SPC            1    5443  123456  0.0000
SPC            1    5444  123456  0.0000
SPC            1    5445  123456  0.0000
SPC            1    5446  123456  0.0000
SPC            1    5447  123456  0.0000
SPC            1    5448  123456  0.0000
SPC            1    5449  123456  0.0000
SPC            1    5450  123456  0.0000
SPC            1    5451  123456  0.0000
SPC            1    5452  123456  0.0000
SPC            1    5453  123456  0.0000
SPC            1    5454  123456  0.0000
SPC            1    5455  123456  0.0000
SPC            1    5456  123456  0.0000
SPC            1    5457  123456  0.0000
SPC            1    5458  123456  0.0000
SPC            1    5459  123456  0.0000
SPC            1    5460  123456  0.0000
SPC            1    5461  123456  0.0000
SPC            1    5462  123456  0.0000
SPC            1    5463  123456  0.0000
SPC            1    5464  123456  0.0000
SPC            1    5465  123456  0.0000
SPC            1    5466  123456  0.0000
SPC            1    5467  123456  0.0000
SPC            1    5468  123456  0.0000
SPC            1    5469  123456  0.0000
SPC            1    5470  123456  0.0000
SPC            1    5471  123456  0.0000
SPC            1    5472  123456  0.0000
SPC            1    5473  123456  0.0000
SPC            1    5474  123456  0.0000
SPC            1    5475  123456  0.0000
SPC            1    5476  123456  0.0000
SPC            1    5477  123456  0.0000
SPC            1    5478  123456  0.0000
SPC            1    5479  123456  0.0000
SPC            1    5480  123456  0.0000
SPC            1    5481  123456  0.0000
SPC            1    5482  123456  0.0000
SPC            1    5483  123456  0.0000
SPC            1    5484  123456  0.0000
SPC            1    5485  123456  0.0000
SPC            1    5486  123456  0.0000
SPC            1    5487  123456  0.0000
SPC            1    5488  123456  0.0000
SPC            1    5489  123456  0.0000
SPC            1    5490  123456  0.0000
SPC            1    5491  123456  0.0000
SPC            1    5492  123456  0.0000
SPC            1    5493  123456  0.0000
SPC            1    5494  123456  0.0000
SPC            1    5495  123456  0.0000
SPC            1    5496  123456  0.0000
SPC            1    5497  123456  0.0000
SPC            1    6650  123456  0.0000
$*  Constraint: SimpleSupport(1)
SPC            2    5310       3  0.0000
SPC            2    5311       3  0.0000
SPC            2    5312       3  0.0000
SPC            2    5313       3  0.0000
SPC            2    5314       3  0.0000
SPC            2    5315       3  0.0000
SPC            2    5316       3  0.0000
SPC            2    5317       3  0.0000
SPC            2    5318       3  0.0000
SPC            2    5319       3  0.0000
SPC            2    5320       3  0.0000
SPC            2    5321       3  0.0000
SPC            2    5322       3  0.0000
SPC            2    5323       3  0.0000
SPC            2    5324       3  0.0000
SPC            2    5325       3  0.0000
SPC            2    5326       3  0.0000
SPC            2    5327       3  0.0000
SPC            2    5328       3  0.0000
SPC            2    5329       3  0.0000
SPC            2    5330       3  0.0000
SPC            2    5331       3  0.0000
SPC            2    5332       3  0.0000
SPC            2    5333       3  0.0000
SPC            2    5334       3  0.0000
SPC            2    5335       3  0.0000
SPC            2    5336       3  0.0000
SPC            2    5337       3  0.0000
SPC            2    5338       3  0.0000
SPC            2    5339       3  0.0000
SPC            2    5340       3  0.0000
SPC            2    5341       3  0.0000
SPC            2    5342       3  0.0000
SPC            2    5343       3  0.0000
SPC            2    5344       3  0.0000
SPC            2    5345       3  0.0000
SPC            2    5346       3  0.0000
SPC            2    5347       3  0.0000
SPC            2    5348       3  0.0000
SPC            2    5349       3  0.0000
SPC            2    5350       3  0.0000
SPC            2    5351       3  0.0000
SPC            2    5352       3  0.0000
SPC            2    5353       3  0.0000
SPC            2    5354       3  0.0000
SPC            2    5355       3  0.0000
SPC            2    5356       3  0.0000
SPC            2    5357       3  0.0000
SPC            2    5358       3  0.0000
SPC            2    5359       3  0.0000
SPC            2    5360       3  0.0000
SPC            2    5361       3  0.0000
SPC            2    5362       3  0.0000
SPC            2    5363       3  0.0000
SPC            2    5364       3  0.0000
SPC            2    5365       3  0.0000
SPC            2    5366       3  0.0000
SPC            2    5367       3  0.0000
SPC            2    5368       3  0.0000
SPC            2    5369       3  0.0000
SPC            2    5370       3  0.0000
SPC            2    5371       3  0.0000
SPC            2    5372       3  0.0000
SPC            2    5373       3  0.0000
SPC            2    5374       3  0.0000
SPC            2    5375       3  0.0000
SPC            2    5376       3  0.0000
SPC            2    5377       3  0.0000
SPC            2    5378       3  0.0000
SPC            2    5379       3  0.0000
SPC            2    5380       3  0.0000
SPC            2    5381       3  0.0000
SPC            2    5382       3  0.0000
SPC            2    5383       3  0.0000
SPC            2    5384       3  0.0000
SPC            2    6460       3  0.0000
SPC            2    6461       3  0.0000
SPC            2    6462       3  0.0000
SPC            2    6463       3  0.0000
SPC            2    6464       3  0.0000
SPC            2    6465       3  0.0000
SPC            2    6466       3  0.0000
SPC            2    6467       3  0.0000
SPC            2    6468       3  0.0000
SPC            2    6469       3  0.0000
SPC            2    6470       3  0.0000
SPC            2    6471       3  0.0000
SPC            2    6472       3  0.0000
SPC            2    6473       3  0.0000
SPC            2    6474       3  0.0000
SPC            2    6475       3  0.0000
SPC            2    6476       3  0.0000
SPC            2    6477       3  0.0000
SPC            2    6478       3  0.0000
SPC            2    6479       3  0.0000
SPC            2    6480       3  0.0000
SPC            2    6481       3  0.0000
SPC            2    6482       3  0.0000
SPC            2    6483       3  0.0000
SPC            2    6484       3  0.0000
SPC            2    6485       3  0.0000
SPC            2    6486       3  0.0000
SPC            2    6487       3  0.0000
SPC            2    6488       3  0.0000
SPC            2    6489       3  0.0000
SPC            2    6490       3  0.0000
SPC            2    6491       3  0.0000
SPC            2    6492       3  0.0000
SPC            2    6493       3  0.0000
SPC            2    6494       3  0.0000
SPC            2    6495       3  0.0000
SPC            2    6496       3  0.0000
SPC            2    6497       3  0.0000
SPC            2    6498       3  0.0000
SPC            2    6499       3  0.0000
SPC            2    6500       3  0.0000
SPC            2    6501       3  0.0000
SPC            2    6502       3  0.0000
SPC            2    6503       3  0.0000
SPC            2    6504       3  0.0000
SPC            2    6505       3  0.0000
SPC            2    6506       3  0.0000
SPC            2    6507       3  0.0000
SPC            2    6508       3  0.0000
SPC            2    6509       3  0.0000
SPC            2    6510       3  0.0000
SPC            2    6511       3  0.0000
SPC            2    6512       3  0.0000
SPC            2    6513       3  0.0000
SPC            2    6514       3  0.0000
SPC            2    6515       3  0.0000
SPC            2    6516       3  0.0000
SPC            2    6517       3  0.0000
SPC            2    6518       3  0.0000
SPC            2    6519       3  0.0000
SPC            2    6520       3  0.0000
SPC            2    6521       3  0.0000
SPC            2    6522       3  0.0000
SPC            2    6523       3  0.0000
SPC            2    6524       3  0.0000
SPC            2    6525       3  0.0000
SPC            2    6526       3  0.0000
SPC            2    6527       3  0.0000
SPC            2    6528       3  0.0000
SPC            2    6529       3  0.0000
SPC            2    6530       3  0.0000
SPC            2    6531       3  0.0000
SPC            2    6532       3  0.0000
SPC            2    6533       3  0.0000
SPC            2    6534       3  0.0000
SPC            2    6535       3  0.0000
SPC            2    6536       3  0.0000
SPC            2    6537       3  0.0000
SPC            2    6538       3  0.0000
SPC            2    6539       3  0.0000
SPC            2    6540       3  0.0000
SPC            2    6541       3  0.0000
SPC            2    6542       3  0.0000
SPC            2    6543       3  0.0000
SPC            2    6544       3  0.0000
SPC            2    6545       3  0.0000
SPC            2    6546       3  0.0000
SPC            2    6547       3  0.0000
SPC            2    6548       3  0.0000
SPC            2    6549       3  0.0000
SPC            2    6550       3  0.0000
SPC            2    6551       3  0.0000
SPC            2    6552       3  0.0000
SPC            2    6553       3  0.0000
SPC            2    6554       3  0.0000
SPC            2    6555       3  0.0000
SPC            2    6556       3  0.0000
SPC            2    6557       3  0.0000
SPC            2    6558       3  0.0000
SPC            2    6559       3  0.0000
SPC            2    6560       3  0.0000
SPC            2    6561       3  0.0000
SPC            2    6562       3  0.0000
SPC            2    6563       3  0.0000
SPC            2    6564       3  0.0000
SPC            2    6565       3  0.0000
SPC            2    6566       3  0.0000
SPC            2    6567       3  0.0000
SPC            2    6568       3  0.0000
SPC            2    6569       3  0.0000
SPC            2    6570       3  0.0000
SPC            2    6571       3  0.0000
SPC            2    6572       3  0.0000
SPC            2    6573       3  0.0000
SPC            2    6574       3  0.0000
SPC            2    6575       3  0.0000
SPC            2    6576       3  0.0000
SPC            2    6577       3  0.0000
SPC            2    6578       3  0.0000
SPC            2    6579       3  0.0000
SPC            2    6580       3  0.0000
SPC            2    6581       3  0.0000
SPC            2    6582       3  0.0000
SPC            2    6583       3  0.0000
SPC            2    6584       3  0.0000
SPC            2    6585       3  0.0000
SPC            2    6586       3  0.0000
SPC            2    6587       3  0.0000
SPC            2    6588       3  0.0000
SPC            2    6589       3  0.0000
SPC            2    6590       3  0.0000
SPC            2    6591       3  0.0000
SPC            2    6592       3  0.0000
SPC            2    6593       3  0.0000
SPC            2    6594       3  0.0000
SPC            2    6595       3  0.0000
SPC            2    6596       3  0.0000
SPC            2    6597       3  0.0000
SPC            2    6598       3  0.0000
SPC            2    6599       3  0.0000
SPC            2    6600       3  0.0000
SPC            2    6601       3  0.0000
SPC            2    6602       3  0.0000
SPC            2    6603       3  0.0000
SPC            2    6604       3  0.0000
SPC            2    6605       3  0.0000
SPC            2    6606       3  0.0000
SPC            2    6607       3  0.0000
SPC            2    6608       3  0.0000
SPC            2    6609       3  0.0000
SPC            2    6610       3  0.0000
SPC            2    6611       3  0.0000
SPC            2    6612       3  0.0000
SPC            2    6613       3  0.0000
SPC            2    6614       3  0.0000
SPC            2    6615       3  0.0000
SPC            2    6616       3  0.0000
SPC            2    6617       3  0.0000
SPC            2    6618       3  0.0000
SPC            2    6619       3  0.0000
SPC            2    6620       3  0.0000
SPC            2    6621       3  0.0000
SPC            2    6622       3  0.0000
SPC            2    6623       3  0.0000
SPC            2    6624       3  0.0000
SPC            2    6625       3  0.0000
SPC            2    6626       3  0.0000
SPC            2    6627       3  0.0000
SPC            2    6628       3  0.0000
SPC            2    6629       3  0.0000
SPC            2    6630       3  0.0000
SPC            2    6631       3  0.0000
SPC            2    6632       3  0.0000
SPC            2    6633       3  0.0000
SPC            2    6634       3  0.0000
SPC            2    6635       3  0.0000
SPC            2    6636       3  0.0000
SPC            2    6637       3  0.0000
SPC            2    6638       3  0.0000
SPC            2    6639       3  0.0000
SPC            2    6640       3  0.0000
SPC            2    6641       3  0.0000
SPC            2    6642       3  0.0000
SPC            2    6643       3  0.0000
SPC            2    6644       3  0.0000
SPC            2    6645       3  0.0000
SPC            2    6646       3  0.0000
SPC            2    6647       3  0.0000
SPC            2    6648       3  0.0000
SPC            2    6649       3  0.0000
SPC            2    6653       3  0.0000
SPC            2    6656       3  0.0000
SPC            2    6657       3  0.0000
SPCADD       100       1       2
$*  Load: Bearing(1)
FORCE          3    6460       0760.7815-0.11001  0.0000-0.99393
FORCE          3    6461       0 1472.71-0.21868  0.0000-0.97580
FORCE          3    6462       0 2128.79-0.32470  0.0000-0.94582
FORCE          3    6463       0 2729.04-0.42678  0.0000-0.90436
FORCE          3    6464       0 3273.45-0.52367  0.0000-0.85192
FORCE          3    6465       0 3762.03-0.61421  0.0000-0.78914
FORCE          3    6466       0 4194.77-0.69730  0.0000-0.71678
FORCE          3    6467       0 4571.67-0.77192  0.0000-0.63572
FORCE          3    6468       0 4892.73-0.83717  0.0000-0.54695
FORCE          3    6469       0 5157.96-0.89225  0.0000-0.45153
FORCE          3    6470       0 5367.35-0.93651  0.0000-0.35064
FORCE          3    6471       0 5520.90-0.96940  0.0000-0.24549
FORCE          3    6472       0 5618.61-0.99052  0.0000-0.13735
FORCE          3    6473       0 5660.49-0.99962  0.0000-0.02755
FORCE          3    6474       0 5646.53-0.99658  0.00000.082579
FORCE          3    6475       0 5576.74-0.98145  0.00000.191711
FORCE          3    6476       0 5451.10-0.95441  0.00000.298515
FORCE          3    6477       0 5269.63-0.91577  0.00000.401695
FORCE          3    6478       0 5032.32-0.86603  0.00000.500000
FORCE          3    6479       0 4739.18-0.80577  0.00000.592235
FORCE          3    6480       0 4390.20-0.73572  0.00000.677282
FORCE          3    6481       0 3985.38-0.65675  0.00000.754107
FORCE          3    6482       0 3524.72-0.56981  0.00000.821778
FORCE          3    6483       0 3008.23-0.47595  0.00000.879474
FORCE          3    6484       0 2435.90-0.37631  0.00000.926494
FORCE          3    6485       0 1807.73-0.27210  0.00000.962268
FORCE          3    6486       0 1123.72-0.16459  0.00000.986361
FORCE          3    6487       0383.8805-0.05509  0.00000.998482
FORCE          3    6516       0781.7206-0.05509  0.0000-0.99848
FORCE          3    6517       0 2261.41-0.16459  0.0000-0.98636
FORCE          3    6518       0 3629.42-0.27210  0.0000-0.96227
FORCE          3    6519       0 4885.75-0.37631  0.0000-0.92649
FORCE          3    6520       0 6030.41-0.47595  0.0000-0.87947
FORCE          3    6521       0 7063.40-0.56981  0.0000-0.82178
FORCE          3    6522       0 7984.72-0.65675  0.0000-0.75411
FORCE          3    6523       0 8794.35-0.73572  0.0000-0.67728
FORCE          3    6524       0 9492.32-0.80577  0.0000-0.59224
FORCE          3    6525       010078.61-0.86603  0.0000-0.50000
FORCE          3    6526       010553.23-0.91577  0.0000-0.40170
FORCE          3    6527       010916.17-0.95441  0.0000-0.29851
FORCE          3    6528       011167.43-0.98145  0.0000-0.19171
FORCE          3    6529       011307.03-0.99658  0.0000-0.08258
FORCE          3    6530       011334.95-0.99962  0.00000.027554
FORCE          3    6531       011251.19-0.99052  0.00000.137354
FORCE          3    6532       011055.76-0.96940  0.00000.245485
FORCE          3    6533       010748.65-0.93651  0.00000.350638
FORCE          3    6534       010329.88-0.89225  0.00000.451533
FORCE          3    6535       0 9799.42-0.83717  0.00000.546948
FORCE          3    6536       0 9157.30-0.77192  0.00000.635724
FORCE          3    6537       0 8403.49-0.69730  0.00000.716783
FORCE          3    6538       0 7538.02-0.61421  0.00000.789141
FORCE          3    6539       0 6560.87-0.52367  0.00000.851919
FORCE          3    6540       0 5472.04-0.42678  0.00000.904357
FORCE          3    6541       0 4271.54-0.32470  0.00000.945817
FORCE          3    6542       0 2959.37-0.21868  0.00000.975796
FORCE          3    6543       0 1535.52-0.11001  0.00000.993931
FORCE          3    6657       0195.4302-2.195-8  0.0000-1.00000
$*
$* COORDINATE SYSTEM CARDS
$*
$*  Coordinate System: DCS
CORD2R*                1               0-3.250000000E+010.0000000000E+00+
*       -6.000000000E+00-3.250000000E+011.0000000000E+00-6.000000000E+00+
*       -3.150000000E+010.0000000000E+00-6.000000000E+00                +
*
ENDDATA 7ab7969b
