$*$$$$$$$$$$$$$$$$$$$$$$$$$$$$$$$$$$$$$$$$$$$$$$$$$$$$$$$$$$$$$$$$$
$*
$*                    Simcenter v2011.0.0.1903 Translator
$*                    for Simcenter Nastran version 2022.1
$*
$*             FEM FILE: F:\OneDrive - Politechnika Warszawska\Praca_In¿ynierska\Model\TWR.2A.2.00.00.000_Payload_module\TWR.2A.2.02.00.000_Ejection_Mechanism\TWR.2A.2.02.05.000_Thermal_HDRM\model1_fem1.fem
$*             SIM FILE: F:\OneDrive - Politechnika Warszawska\Praca_In¿ynierska\Model\TWR.2A.2.00.00.000_Payload_module\TWR.2A.2.02.00.000_Ejection_Mechanism\TWR.2A.2.02.05.000_Thermal_HDRM\model1_sim1.sim
$*        ANALYSIS TYPE: Structural
$*        SOLUTION NAME: Solution 1
$*        SOLUTION TYPE: SOL 101 Linear Statics
$*
$*    SOLVER INPUT FILE: model1_sim1-solution_1.dat
$*        CREATION DATE: 16-Nov-2023
$*        CREATION TIME: 00:23:18
$*             HOSTNAME: DESKTOP-I8NEHTB
$*      NASTRAN LICENSE: Desktop Bundle
$*
$*                UNITS: mm (milli-newton)
$*                      ... LENGTH : mm
$*                      ... TIME   : sec
$*                      ... MASS   : kilogram (kg)
$*                      ... TEMPERATURE : deg Celsius
$*                      ... FORCE  : milli-newton
$*                      ... THERMAL ENERGY : mN-mm (micro-joule)
$*
$* IMPORTANT NOTE:
$*     This banner was generated by Simcenter and altering this 
$*     information may compromise the pre and post processing of results
$*
$*$$$$$$$$$$$$$$$$$$$$$$$$$$$$$$$$$$$$$$$$$$$$$$$$$$$$$$$$$$$$$$$$$
$*
$*$$$$$$$$$$$$$$$$$$$$$$$$$$$$$$$$$$$
$*
$* FILE MANAGEMENT
$*
$*$$$$$$$$$$$$$$$$$$$$$$$$$$$$$$$$$$$
$*
$*
$*$$$$$$$$$$$$$$$$$$$$$$$$$$$$$$$$$$$
$*
$* EXECUTIVE CONTROL
$*
$*$$$$$$$$$$$$$$$$$$$$$$$$$$$$$$$$$$$
$*
ID,NASTRAN,model1_sim1-solution_1
SOL 101
CEND
$*
$*$$$$$$$$$$$$$$$$$$$$$$$$$$$$$$$$$$$
$*
$* CASE CONTROL
$*
$*$$$$$$$$$$$$$$$$$$$$$$$$$$$$$$$$$$$
$*
ECHO = NONE
OUTPUT
DISPLACEMENT(PLOT,REAL) = ALL
SPCFORCES(PLOT,REAL) = ALL
STRESS(PLOT,REAL,VONMISES,CENTER) = ALL
$*  Step: Subcase - Statics 1
SUBCASE 1
  LABEL = Subcase - Statics 1
  LOAD = 1
  SPC = 2
$*
$*$$$$$$$$$$$$$$$$$$$$$$$$$$$$$$$$$$$
$*
$* BULK DATA
$*
$*$$$$$$$$$$$$$$$$$$$$$$$$$$$$$$$$$$$
$*
BEGIN BULK
$*
$* PARAM CARDS
$*
PARAM      K6ROT100.0000
PARAM     OIBULK     YES
PARAM    OMACHPR     YES
PARAM       POST      -2
PARAM    POSTEXT     YES
PARAM    UNITSYS   MN-MM
$*
$* GRID CARDS
$*
GRID*                  1               07.3000000000E+010.0000000000E+00+
*       1.6552631579E+01               0
GRID*                  2               07.3000000000E+010.0000000000E+00+
*       1.4605263158E+01               0
GRID*                  3               07.3000000000E+010.0000000000E+00+
*       1.2657894737E+01               0
GRID*                  4               07.3000000000E+010.0000000000E+00+
*       1.0710526316E+01               0
GRID*                  5               07.3000000000E+010.0000000000E+00+
*       8.7631578947E+00               0
GRID*                  6               07.3000000000E+010.0000000000E+00+
*       6.8157894737E+00               0
GRID*                  7               07.3000000000E+010.0000000000E+00+
*       4.8684210526E+00               0
GRID*                  8               07.3000000000E+010.0000000000E+00+
*       2.9210526316E+00               0
GRID*                  9               07.3000000000E+010.0000000000E+00+
*       9.7368421053E-01               0
GRID*                 10               07.3000000000E+010.0000000000E+00+
*       -9.736842105E-01               0
GRID*                 11               07.3000000000E+010.0000000000E+00+
*       -2.921052632E+00               0
GRID*                 12               07.3000000000E+010.0000000000E+00+
*       -4.868421053E+00               0
GRID*                 13               07.3000000000E+010.0000000000E+00+
*       -6.815789474E+00               0
GRID*                 14               07.3000000000E+010.0000000000E+00+
*       -8.763157895E+00               0
GRID*                 15               07.3000000000E+010.0000000000E+00+
*       -1.071052632E+01               0
GRID*                 16               07.3000000000E+010.0000000000E+00+
*       -1.265789474E+01               0
GRID*                 17               07.3000000000E+010.0000000000E+00+
*       -1.460526316E+01               0
GRID*                 18               07.3000000000E+010.0000000000E+00+
*       -1.655263158E+01               0
GRID*                 19               07.1000000000E+010.0000000000E+00+
*       1.6552631579E+01               0
GRID*                 20               07.1000000000E+010.0000000000E+00+
*       1.4605263158E+01               0
GRID*                 21               07.1000000000E+010.0000000000E+00+
*       1.2657894737E+01               0
GRID*                 22               07.1000000000E+010.0000000000E+00+
*       1.0710526316E+01               0
GRID*                 23               07.1000000000E+010.0000000000E+00+
*       8.7631578947E+00               0
GRID*                 24               07.1000000000E+010.0000000000E+00+
*       6.8157894737E+00               0
GRID*                 25               07.1000000000E+010.0000000000E+00+
*       4.8684210526E+00               0
GRID*                 26               07.1000000000E+010.0000000000E+00+
*       2.9210526316E+00               0
GRID*                 27               07.1000000000E+010.0000000000E+00+
*       9.7368421053E-01               0
GRID*                 28               07.1000000000E+010.0000000000E+00+
*       -9.736842105E-01               0
GRID*                 29               07.1000000000E+010.0000000000E+00+
*       -2.921052632E+00               0
GRID*                 30               07.1000000000E+010.0000000000E+00+
*       -4.868421053E+00               0
GRID*                 31               07.1000000000E+010.0000000000E+00+
*       -6.815789474E+00               0
GRID*                 32               07.1000000000E+010.0000000000E+00+
*       -8.763157895E+00               0
GRID*                 33               07.1000000000E+010.0000000000E+00+
*       -1.071052632E+01               0
GRID*                 34               07.1000000000E+010.0000000000E+00+
*       -1.265789474E+01               0
GRID*                 35               07.1000000000E+010.0000000000E+00+
*       -1.460526316E+01               0
GRID*                 36               07.1000000000E+010.0000000000E+00+
*       -1.655263158E+01               0
GRID*                 37               06.9000000000E+010.0000000000E+00+
*       1.6552631579E+01               0
GRID*                 38               06.9000000000E+010.0000000000E+00+
*       1.4605263158E+01               0
GRID*                 39               06.9000000000E+010.0000000000E+00+
*       1.2657894737E+01               0
GRID*                 40               06.9000000000E+010.0000000000E+00+
*       1.0710526316E+01               0
GRID*                 41               06.9000000000E+010.0000000000E+00+
*       8.7631578947E+00               0
GRID*                 42               06.9000000000E+010.0000000000E+00+
*       6.8157894737E+00               0
GRID*                 43               06.9000000000E+010.0000000000E+00+
*       4.8684210526E+00               0
GRID*                 44               06.9000000000E+010.0000000000E+00+
*       2.9210526316E+00               0
GRID*                 45               06.9000000000E+010.0000000000E+00+
*       9.7368421053E-01               0
GRID*                 46               06.9000000000E+010.0000000000E+00+
*       -9.736842105E-01               0
GRID*                 47               06.9000000000E+010.0000000000E+00+
*       -2.921052632E+00               0
GRID*                 48               06.9000000000E+010.0000000000E+00+
*       -4.868421053E+00               0
GRID*                 49               06.9000000000E+010.0000000000E+00+
*       -6.815789474E+00               0
GRID*                 50               06.9000000000E+010.0000000000E+00+
*       -8.763157895E+00               0
GRID*                 51               06.9000000000E+010.0000000000E+00+
*       -1.071052632E+01               0
GRID*                 52               06.9000000000E+010.0000000000E+00+
*       -1.265789474E+01               0
GRID*                 53               06.9000000000E+010.0000000000E+00+
*       -1.460526316E+01               0
GRID*                 54               06.9000000000E+010.0000000000E+00+
*       -1.655263158E+01               0
GRID*                 55               06.7000000000E+010.0000000000E+00+
*       1.6552631579E+01               0
GRID*                 56               06.7000000000E+010.0000000000E+00+
*       1.4605263158E+01               0
GRID*                 57               06.7000000000E+010.0000000000E+00+
*       1.2657894737E+01               0
GRID*                 58               06.7000000000E+010.0000000000E+00+
*       1.0710526316E+01               0
GRID*                 59               06.7000000000E+010.0000000000E+00+
*       8.7631578947E+00               0
GRID*                 60               06.7000000000E+010.0000000000E+00+
*       6.8157894737E+00               0
GRID*                 61               06.7000000000E+010.0000000000E+00+
*       4.8684210526E+00               0
GRID*                 62               06.7000000000E+010.0000000000E+00+
*       2.9210526316E+00               0
GRID*                 63               06.7000000000E+010.0000000000E+00+
*       9.7368421053E-01               0
GRID*                 64               06.7000000000E+010.0000000000E+00+
*       -9.736842105E-01               0
GRID*                 65               06.7000000000E+010.0000000000E+00+
*       -2.921052632E+00               0
GRID*                 66               06.7000000000E+010.0000000000E+00+
*       -4.868421053E+00               0
GRID*                 67               06.7000000000E+010.0000000000E+00+
*       -6.815789474E+00               0
GRID*                 68               06.7000000000E+010.0000000000E+00+
*       -8.763157895E+00               0
GRID*                 69               06.7000000000E+010.0000000000E+00+
*       -1.071052632E+01               0
GRID*                 70               06.7000000000E+010.0000000000E+00+
*       -1.265789474E+01               0
GRID*                 71               06.7000000000E+010.0000000000E+00+
*       -1.460526316E+01               0
GRID*                 72               06.7000000000E+010.0000000000E+00+
*       -1.655263158E+01               0
GRID*                 73               06.5000000000E+010.0000000000E+00+
*       1.6552631579E+01               0
GRID*                 74               06.5000000000E+010.0000000000E+00+
*       1.4605263158E+01               0
GRID*                 75               06.5000000000E+010.0000000000E+00+
*       1.2657894737E+01               0
GRID*                 76               06.5000000000E+010.0000000000E+00+
*       1.0710526316E+01               0
GRID*                 77               06.5000000000E+010.0000000000E+00+
*       8.7631578947E+00               0
GRID*                 78               06.5000000000E+010.0000000000E+00+
*       6.8157894737E+00               0
GRID*                 79               06.5000000000E+010.0000000000E+00+
*       4.8684210526E+00               0
GRID*                 80               06.5000000000E+010.0000000000E+00+
*       2.9210526316E+00               0
GRID*                 81               06.5000000000E+010.0000000000E+00+
*       9.7368421053E-01               0
GRID*                 82               06.5000000000E+010.0000000000E+00+
*       -9.736842105E-01               0
GRID*                 83               06.5000000000E+010.0000000000E+00+
*       -2.921052632E+00               0
GRID*                 84               06.5000000000E+010.0000000000E+00+
*       -4.868421053E+00               0
GRID*                 85               06.5000000000E+010.0000000000E+00+
*       -6.815789474E+00               0
GRID*                 86               06.5000000000E+010.0000000000E+00+
*       -8.763157895E+00               0
GRID*                 87               06.5000000000E+010.0000000000E+00+
*       -1.071052632E+01               0
GRID*                 88               06.5000000000E+010.0000000000E+00+
*       -1.265789474E+01               0
GRID*                 89               06.5000000000E+010.0000000000E+00+
*       -1.460526316E+01               0
GRID*                 90               06.5000000000E+010.0000000000E+00+
*       -1.655263158E+01               0
GRID*                 91               06.3000000000E+010.0000000000E+00+
*       1.6552631579E+01               0
GRID*                 92               06.3000000000E+010.0000000000E+00+
*       1.4605263158E+01               0
GRID*                 93               06.3000000000E+010.0000000000E+00+
*       1.2657894737E+01               0
GRID*                 94               06.3000000000E+010.0000000000E+00+
*       1.0710526316E+01               0
GRID*                 95               06.3000000000E+010.0000000000E+00+
*       8.7631578947E+00               0
GRID*                 96               06.3000000000E+010.0000000000E+00+
*       6.8157894737E+00               0
GRID*                 97               06.3000000000E+010.0000000000E+00+
*       4.8684210526E+00               0
GRID*                 98               06.3000000000E+010.0000000000E+00+
*       2.9210526316E+00               0
GRID*                 99               06.3000000000E+010.0000000000E+00+
*       9.7368421053E-01               0
GRID*                100               06.3000000000E+010.0000000000E+00+
*       -9.736842105E-01               0
GRID*                101               06.3000000000E+010.0000000000E+00+
*       -2.921052632E+00               0
GRID*                102               06.3000000000E+010.0000000000E+00+
*       -4.868421053E+00               0
GRID*                103               06.3000000000E+010.0000000000E+00+
*       -6.815789474E+00               0
GRID*                104               06.3000000000E+010.0000000000E+00+
*       -8.763157895E+00               0
GRID*                105               06.3000000000E+010.0000000000E+00+
*       -1.071052632E+01               0
GRID*                106               06.3000000000E+010.0000000000E+00+
*       -1.265789474E+01               0
GRID*                107               06.3000000000E+010.0000000000E+00+
*       -1.460526316E+01               0
GRID*                108               06.3000000000E+010.0000000000E+00+
*       -1.655263158E+01               0
GRID*                109               06.1000000000E+010.0000000000E+00+
*       1.6552631579E+01               0
GRID*                110               06.1000000000E+010.0000000000E+00+
*       1.4605263158E+01               0
GRID*                111               06.1000000000E+010.0000000000E+00+
*       1.2657894737E+01               0
GRID*                112               06.1000000000E+010.0000000000E+00+
*       1.0710526316E+01               0
GRID*                113               06.1000000000E+010.0000000000E+00+
*       8.7631578947E+00               0
GRID*                114               06.1000000000E+010.0000000000E+00+
*       6.8157894737E+00               0
GRID*                115               06.1000000000E+010.0000000000E+00+
*       4.8684210526E+00               0
GRID*                116               06.1000000000E+010.0000000000E+00+
*       2.9210526316E+00               0
GRID*                117               06.1000000000E+010.0000000000E+00+
*       9.7368421053E-01               0
GRID*                118               06.1000000000E+010.0000000000E+00+
*       -9.736842105E-01               0
GRID*                119               06.1000000000E+010.0000000000E+00+
*       -2.921052632E+00               0
GRID*                120               06.1000000000E+010.0000000000E+00+
*       -4.868421053E+00               0
GRID*                121               06.1000000000E+010.0000000000E+00+
*       -6.815789474E+00               0
GRID*                122               06.1000000000E+010.0000000000E+00+
*       -8.763157895E+00               0
GRID*                123               06.1000000000E+010.0000000000E+00+
*       -1.071052632E+01               0
GRID*                124               06.1000000000E+010.0000000000E+00+
*       -1.265789474E+01               0
GRID*                125               06.1000000000E+010.0000000000E+00+
*       -1.460526316E+01               0
GRID*                126               06.1000000000E+010.0000000000E+00+
*       -1.655263158E+01               0
GRID*                127               05.9000000000E+010.0000000000E+00+
*       1.6552631579E+01               0
GRID*                128               05.9000000000E+010.0000000000E+00+
*       1.4605263158E+01               0
GRID*                129               05.9000000000E+010.0000000000E+00+
*       1.2657894737E+01               0
GRID*                130               05.9000000000E+010.0000000000E+00+
*       1.0710526316E+01               0
GRID*                131               05.9000000000E+010.0000000000E+00+
*       8.7631578947E+00               0
GRID*                132               05.9000000000E+010.0000000000E+00+
*       6.8157894737E+00               0
GRID*                133               05.9000000000E+010.0000000000E+00+
*       4.8684210526E+00               0
GRID*                134               05.9000000000E+010.0000000000E+00+
*       2.9210526316E+00               0
GRID*                135               05.9000000000E+010.0000000000E+00+
*       9.7368421053E-01               0
GRID*                136               05.9000000000E+010.0000000000E+00+
*       -9.736842105E-01               0
GRID*                137               05.9000000000E+010.0000000000E+00+
*       -2.921052632E+00               0
GRID*                138               05.9000000000E+010.0000000000E+00+
*       -4.868421053E+00               0
GRID*                139               05.9000000000E+010.0000000000E+00+
*       -6.815789474E+00               0
GRID*                140               05.9000000000E+010.0000000000E+00+
*       -8.763157895E+00               0
GRID*                141               05.9000000000E+010.0000000000E+00+
*       -1.071052632E+01               0
GRID*                142               05.9000000000E+010.0000000000E+00+
*       -1.265789474E+01               0
GRID*                143               05.9000000000E+010.0000000000E+00+
*       -1.460526316E+01               0
GRID*                144               05.9000000000E+010.0000000000E+00+
*       -1.655263158E+01               0
GRID*                145               05.7000000000E+010.0000000000E+00+
*       1.6552631579E+01               0
GRID*                146               05.7000000000E+010.0000000000E+00+
*       1.4605263158E+01               0
GRID*                147               05.7000000000E+010.0000000000E+00+
*       1.2657894737E+01               0
GRID*                148               05.7000000000E+010.0000000000E+00+
*       1.0710526316E+01               0
GRID*                149               05.7000000000E+010.0000000000E+00+
*       8.7631578947E+00               0
GRID*                150               05.7000000000E+010.0000000000E+00+
*       6.8157894737E+00               0
GRID*                151               05.7000000000E+010.0000000000E+00+
*       4.8684210526E+00               0
GRID*                152               05.7000000000E+010.0000000000E+00+
*       2.9210526316E+00               0
GRID*                153               05.7000000000E+010.0000000000E+00+
*       9.7368421053E-01               0
GRID*                154               05.7000000000E+010.0000000000E+00+
*       -9.736842105E-01               0
GRID*                155               05.7000000000E+010.0000000000E+00+
*       -2.921052632E+00               0
GRID*                156               05.7000000000E+010.0000000000E+00+
*       -4.868421053E+00               0
GRID*                157               05.7000000000E+010.0000000000E+00+
*       -6.815789474E+00               0
GRID*                158               05.7000000000E+010.0000000000E+00+
*       -8.763157895E+00               0
GRID*                159               05.7000000000E+010.0000000000E+00+
*       -1.071052632E+01               0
GRID*                160               05.7000000000E+010.0000000000E+00+
*       -1.265789474E+01               0
GRID*                161               05.7000000000E+010.0000000000E+00+
*       -1.460526316E+01               0
GRID*                162               05.7000000000E+010.0000000000E+00+
*       -1.655263158E+01               0
GRID*                163               05.5000000000E+010.0000000000E+00+
*       1.6552631579E+01               0
GRID*                164               05.5000000000E+010.0000000000E+00+
*       1.4605263158E+01               0
GRID*                165               05.5000000000E+010.0000000000E+00+
*       1.2657894737E+01               0
GRID*                166               05.5000000000E+010.0000000000E+00+
*       1.0710526316E+01               0
GRID*                167               05.5000000000E+010.0000000000E+00+
*       8.7631578947E+00               0
GRID*                168               05.5000000000E+010.0000000000E+00+
*       6.8157894737E+00               0
GRID*                169               05.5000000000E+010.0000000000E+00+
*       4.8684210526E+00               0
GRID*                170               05.5000000000E+010.0000000000E+00+
*       2.9210526316E+00               0
GRID*                171               05.5000000000E+010.0000000000E+00+
*       9.7368421053E-01               0
GRID*                172               05.5000000000E+010.0000000000E+00+
*       -9.736842105E-01               0
GRID*                173               05.5000000000E+010.0000000000E+00+
*       -2.921052632E+00               0
GRID*                174               05.5000000000E+010.0000000000E+00+
*       -4.868421053E+00               0
GRID*                175               05.5000000000E+010.0000000000E+00+
*       -6.815789474E+00               0
GRID*                176               05.5000000000E+010.0000000000E+00+
*       -8.763157895E+00               0
GRID*                177               05.5000000000E+010.0000000000E+00+
*       -1.071052632E+01               0
GRID*                178               05.5000000000E+010.0000000000E+00+
*       -1.265789474E+01               0
GRID*                179               05.5000000000E+010.0000000000E+00+
*       -1.460526316E+01               0
GRID*                180               05.5000000000E+010.0000000000E+00+
*       -1.655263158E+01               0
GRID*                181               05.3000000000E+010.0000000000E+00+
*       1.6552631579E+01               0
GRID*                182               05.3000000000E+010.0000000000E+00+
*       1.4605263158E+01               0
GRID*                183               05.3000000000E+010.0000000000E+00+
*       1.2657894737E+01               0
GRID*                184               05.3000000000E+010.0000000000E+00+
*       1.0710526316E+01               0
GRID*                185               05.3000000000E+010.0000000000E+00+
*       8.7631578947E+00               0
GRID*                186               05.3000000000E+010.0000000000E+00+
*       6.8157894737E+00               0
GRID*                187               05.3000000000E+010.0000000000E+00+
*       4.8684210526E+00               0
GRID*                188               05.3000000000E+010.0000000000E+00+
*       2.9210526316E+00               0
GRID*                189               05.3000000000E+010.0000000000E+00+
*       9.7368421053E-01               0
GRID*                190               05.3000000000E+010.0000000000E+00+
*       -9.736842105E-01               0
GRID*                191               05.3000000000E+010.0000000000E+00+
*       -2.921052632E+00               0
GRID*                192               05.3000000000E+010.0000000000E+00+
*       -4.868421053E+00               0
GRID*                193               05.3000000000E+010.0000000000E+00+
*       -6.815789474E+00               0
GRID*                194               05.3000000000E+010.0000000000E+00+
*       -8.763157895E+00               0
GRID*                195               05.3000000000E+010.0000000000E+00+
*       -1.071052632E+01               0
GRID*                196               05.3000000000E+010.0000000000E+00+
*       -1.265789474E+01               0
GRID*                197               05.3000000000E+010.0000000000E+00+
*       -1.460526316E+01               0
GRID*                198               05.3000000000E+010.0000000000E+00+
*       -1.655263158E+01               0
GRID*                199               05.1000000000E+010.0000000000E+00+
*       1.6552631579E+01               0
GRID*                200               05.1000000000E+010.0000000000E+00+
*       1.4605263158E+01               0
GRID*                201               05.1000000000E+010.0000000000E+00+
*       1.2657894737E+01               0
GRID*                202               05.1000000000E+010.0000000000E+00+
*       1.0710526316E+01               0
GRID*                203               05.1000000000E+010.0000000000E+00+
*       8.7631578947E+00               0
GRID*                204               05.1000000000E+010.0000000000E+00+
*       6.8157894737E+00               0
GRID*                205               05.1000000000E+010.0000000000E+00+
*       4.8684210526E+00               0
GRID*                206               05.1000000000E+010.0000000000E+00+
*       2.9210526316E+00               0
GRID*                207               05.1000000000E+010.0000000000E+00+
*       9.7368421053E-01               0
GRID*                208               05.1000000000E+010.0000000000E+00+
*       -9.736842105E-01               0
GRID*                209               05.1000000000E+010.0000000000E+00+
*       -2.921052632E+00               0
GRID*                210               05.1000000000E+010.0000000000E+00+
*       -4.868421053E+00               0
GRID*                211               05.1000000000E+010.0000000000E+00+
*       -6.815789474E+00               0
GRID*                212               05.1000000000E+010.0000000000E+00+
*       -8.763157895E+00               0
GRID*                213               05.1000000000E+010.0000000000E+00+
*       -1.071052632E+01               0
GRID*                214               05.1000000000E+010.0000000000E+00+
*       -1.265789474E+01               0
GRID*                215               05.1000000000E+010.0000000000E+00+
*       -1.460526316E+01               0
GRID*                216               05.1000000000E+010.0000000000E+00+
*       -1.655263158E+01               0
GRID*                217               04.9000000000E+010.0000000000E+00+
*       1.6552631579E+01               0
GRID*                218               04.9000000000E+010.0000000000E+00+
*       1.4605263158E+01               0
GRID*                219               04.9000000000E+010.0000000000E+00+
*       1.2657894737E+01               0
GRID*                220               04.9000000000E+010.0000000000E+00+
*       1.0710526316E+01               0
GRID*                221               04.9000000000E+010.0000000000E+00+
*       8.7631578947E+00               0
GRID*                222               04.9000000000E+010.0000000000E+00+
*       6.8157894737E+00               0
GRID*                223               04.9000000000E+010.0000000000E+00+
*       4.8684210526E+00               0
GRID*                224               04.9000000000E+010.0000000000E+00+
*       2.9210526316E+00               0
GRID*                225               04.9000000000E+010.0000000000E+00+
*       9.7368421053E-01               0
GRID*                226               04.9000000000E+010.0000000000E+00+
*       -9.736842105E-01               0
GRID*                227               04.9000000000E+010.0000000000E+00+
*       -2.921052632E+00               0
GRID*                228               04.9000000000E+010.0000000000E+00+
*       -4.868421053E+00               0
GRID*                229               04.9000000000E+010.0000000000E+00+
*       -6.815789474E+00               0
GRID*                230               04.9000000000E+010.0000000000E+00+
*       -8.763157895E+00               0
GRID*                231               04.9000000000E+010.0000000000E+00+
*       -1.071052632E+01               0
GRID*                232               04.9000000000E+010.0000000000E+00+
*       -1.265789474E+01               0
GRID*                233               04.9000000000E+010.0000000000E+00+
*       -1.460526316E+01               0
GRID*                234               04.9000000000E+010.0000000000E+00+
*       -1.655263158E+01               0
GRID*                235               04.7000000000E+010.0000000000E+00+
*       1.6552631579E+01               0
GRID*                236               04.7000000000E+010.0000000000E+00+
*       1.4605263158E+01               0
GRID*                237               04.7000000000E+010.0000000000E+00+
*       1.2657894737E+01               0
GRID*                238               04.7000000000E+010.0000000000E+00+
*       1.0710526316E+01               0
GRID*                239               04.7000000000E+010.0000000000E+00+
*       8.7631578947E+00               0
GRID*                240               04.7000000000E+010.0000000000E+00+
*       6.8157894737E+00               0
GRID*                241               04.7000000000E+010.0000000000E+00+
*       4.8684210526E+00               0
GRID*                242               04.7000000000E+010.0000000000E+00+
*       2.9210526316E+00               0
GRID*                243               04.7000000000E+010.0000000000E+00+
*       9.7368421053E-01               0
GRID*                244               04.7000000000E+010.0000000000E+00+
*       -9.736842105E-01               0
GRID*                245               04.7000000000E+010.0000000000E+00+
*       -2.921052632E+00               0
GRID*                246               04.7000000000E+010.0000000000E+00+
*       -4.868421053E+00               0
GRID*                247               04.7000000000E+010.0000000000E+00+
*       -6.815789474E+00               0
GRID*                248               04.7000000000E+010.0000000000E+00+
*       -8.763157895E+00               0
GRID*                249               04.7000000000E+010.0000000000E+00+
*       -1.071052632E+01               0
GRID*                250               04.7000000000E+010.0000000000E+00+
*       -1.265789474E+01               0
GRID*                251               04.7000000000E+010.0000000000E+00+
*       -1.460526316E+01               0
GRID*                252               04.7000000000E+010.0000000000E+00+
*       -1.655263158E+01               0
GRID*                253               04.5000000000E+010.0000000000E+00+
*       1.6552631579E+01               0
GRID*                254               04.5000000000E+010.0000000000E+00+
*       1.4605263158E+01               0
GRID*                255               04.5000000000E+010.0000000000E+00+
*       1.2657894737E+01               0
GRID*                256               04.5000000000E+010.0000000000E+00+
*       1.0710526316E+01               0
GRID*                257               04.5000000000E+010.0000000000E+00+
*       8.7631578947E+00               0
GRID*                258               04.5000000000E+010.0000000000E+00+
*       6.8157894737E+00               0
GRID*                259               04.5000000000E+010.0000000000E+00+
*       4.8684210526E+00               0
GRID*                260               04.5000000000E+010.0000000000E+00+
*       2.9210526316E+00               0
GRID*                261               04.5000000000E+010.0000000000E+00+
*       9.7368421053E-01               0
GRID*                262               04.5000000000E+010.0000000000E+00+
*       -9.736842105E-01               0
GRID*                263               04.5000000000E+010.0000000000E+00+
*       -2.921052632E+00               0
GRID*                264               04.5000000000E+010.0000000000E+00+
*       -4.868421053E+00               0
GRID*                265               04.5000000000E+010.0000000000E+00+
*       -6.815789474E+00               0
GRID*                266               04.5000000000E+010.0000000000E+00+
*       -8.763157895E+00               0
GRID*                267               04.5000000000E+010.0000000000E+00+
*       -1.071052632E+01               0
GRID*                268               04.5000000000E+010.0000000000E+00+
*       -1.265789474E+01               0
GRID*                269               04.5000000000E+010.0000000000E+00+
*       -1.460526316E+01               0
GRID*                270               04.5000000000E+010.0000000000E+00+
*       -1.655263158E+01               0
GRID*                271               04.3000000000E+010.0000000000E+00+
*       1.6552631579E+01               0
GRID*                272               04.3000000000E+010.0000000000E+00+
*       1.4605263158E+01               0
GRID*                273               04.3000000000E+010.0000000000E+00+
*       1.2657894737E+01               0
GRID*                274               04.3000000000E+010.0000000000E+00+
*       1.0710526316E+01               0
GRID*                275               04.3000000000E+010.0000000000E+00+
*       8.7631578947E+00               0
GRID*                276               04.3000000000E+010.0000000000E+00+
*       6.8157894737E+00               0
GRID*                277               04.3000000000E+010.0000000000E+00+
*       4.8684210526E+00               0
GRID*                278               04.3000000000E+010.0000000000E+00+
*       2.9210526316E+00               0
GRID*                279               04.3000000000E+010.0000000000E+00+
*       9.7368421053E-01               0
GRID*                280               04.3000000000E+010.0000000000E+00+
*       -9.736842105E-01               0
GRID*                281               04.3000000000E+010.0000000000E+00+
*       -2.921052632E+00               0
GRID*                282               04.3000000000E+010.0000000000E+00+
*       -4.868421053E+00               0
GRID*                283               04.3000000000E+010.0000000000E+00+
*       -6.815789474E+00               0
GRID*                284               04.3000000000E+010.0000000000E+00+
*       -8.763157895E+00               0
GRID*                285               04.3000000000E+010.0000000000E+00+
*       -1.071052632E+01               0
GRID*                286               04.3000000000E+010.0000000000E+00+
*       -1.265789474E+01               0
GRID*                287               04.3000000000E+010.0000000000E+00+
*       -1.460526316E+01               0
GRID*                288               04.3000000000E+010.0000000000E+00+
*       -1.655263158E+01               0
GRID*                289               04.1000000000E+010.0000000000E+00+
*       1.6552631579E+01               0
GRID*                290               04.1000000000E+010.0000000000E+00+
*       1.4605263158E+01               0
GRID*                291               04.1000000000E+010.0000000000E+00+
*       1.2657894737E+01               0
GRID*                292               04.1000000000E+010.0000000000E+00+
*       1.0710526316E+01               0
GRID*                293               04.1000000000E+010.0000000000E+00+
*       8.7631578947E+00               0
GRID*                294               04.1000000000E+010.0000000000E+00+
*       6.8157894737E+00               0
GRID*                295               04.1000000000E+010.0000000000E+00+
*       4.8684210526E+00               0
GRID*                296               04.1000000000E+010.0000000000E+00+
*       2.9210526316E+00               0
GRID*                297               04.1000000000E+010.0000000000E+00+
*       9.7368421053E-01               0
GRID*                298               04.1000000000E+010.0000000000E+00+
*       -9.736842105E-01               0
GRID*                299               04.1000000000E+010.0000000000E+00+
*       -2.921052632E+00               0
GRID*                300               04.1000000000E+010.0000000000E+00+
*       -4.868421053E+00               0
GRID*                301               04.1000000000E+010.0000000000E+00+
*       -6.815789474E+00               0
GRID*                302               04.1000000000E+010.0000000000E+00+
*       -8.763157895E+00               0
GRID*                303               04.1000000000E+010.0000000000E+00+
*       -1.071052632E+01               0
GRID*                304               04.1000000000E+010.0000000000E+00+
*       -1.265789474E+01               0
GRID*                305               04.1000000000E+010.0000000000E+00+
*       -1.460526316E+01               0
GRID*                306               04.1000000000E+010.0000000000E+00+
*       -1.655263158E+01               0
GRID*                307               03.9000000000E+010.0000000000E+00+
*       1.6552631579E+01               0
GRID*                308               03.9000000000E+010.0000000000E+00+
*       1.4605263158E+01               0
GRID*                309               03.9000000000E+010.0000000000E+00+
*       1.2657894737E+01               0
GRID*                310               03.9000000000E+010.0000000000E+00+
*       1.0710526316E+01               0
GRID*                311               03.9000000000E+010.0000000000E+00+
*       8.7631578947E+00               0
GRID*                312               03.9000000000E+010.0000000000E+00+
*       6.8157894737E+00               0
GRID*                313               03.9000000000E+010.0000000000E+00+
*       4.8684210526E+00               0
GRID*                314               03.9000000000E+010.0000000000E+00+
*       2.9210526316E+00               0
GRID*                315               03.9000000000E+010.0000000000E+00+
*       9.7368421053E-01               0
GRID*                316               03.9000000000E+010.0000000000E+00+
*       -9.736842105E-01               0
GRID*                317               03.9000000000E+010.0000000000E+00+
*       -2.921052632E+00               0
GRID*                318               03.9000000000E+010.0000000000E+00+
*       -4.868421053E+00               0
GRID*                319               03.9000000000E+010.0000000000E+00+
*       -6.815789474E+00               0
GRID*                320               03.9000000000E+010.0000000000E+00+
*       -8.763157895E+00               0
GRID*                321               03.9000000000E+010.0000000000E+00+
*       -1.071052632E+01               0
GRID*                322               03.9000000000E+010.0000000000E+00+
*       -1.265789474E+01               0
GRID*                323               03.9000000000E+010.0000000000E+00+
*       -1.460526316E+01               0
GRID*                324               03.9000000000E+010.0000000000E+00+
*       -1.655263158E+01               0
GRID*                325               03.7000000000E+010.0000000000E+00+
*       1.6552631579E+01               0
GRID*                326               03.7000000000E+010.0000000000E+00+
*       1.4605263158E+01               0
GRID*                327               03.7000000000E+010.0000000000E+00+
*       1.2657894737E+01               0
GRID*                328               03.7000000000E+010.0000000000E+00+
*       1.0710526316E+01               0
GRID*                329               03.7000000000E+010.0000000000E+00+
*       8.7631578947E+00               0
GRID*                330               03.7000000000E+010.0000000000E+00+
*       6.8157894737E+00               0
GRID*                331               03.7000000000E+010.0000000000E+00+
*       4.8684210526E+00               0
GRID*                332               03.7000000000E+010.0000000000E+00+
*       2.9210526316E+00               0
GRID*                333               03.7000000000E+010.0000000000E+00+
*       9.7368421053E-01               0
GRID*                334               03.7000000000E+010.0000000000E+00+
*       -9.736842105E-01               0
GRID*                335               03.7000000000E+010.0000000000E+00+
*       -2.921052632E+00               0
GRID*                336               03.7000000000E+010.0000000000E+00+
*       -4.868421053E+00               0
GRID*                337               03.7000000000E+010.0000000000E+00+
*       -6.815789474E+00               0
GRID*                338               03.7000000000E+010.0000000000E+00+
*       -8.763157895E+00               0
GRID*                339               03.7000000000E+010.0000000000E+00+
*       -1.071052632E+01               0
GRID*                340               03.7000000000E+010.0000000000E+00+
*       -1.265789474E+01               0
GRID*                341               03.7000000000E+010.0000000000E+00+
*       -1.460526316E+01               0
GRID*                342               03.7000000000E+010.0000000000E+00+
*       -1.655263158E+01               0
GRID*                343               03.5000000000E+010.0000000000E+00+
*       1.6552631579E+01               0
GRID*                344               03.5000000000E+010.0000000000E+00+
*       1.4605263158E+01               0
GRID*                345               03.5000000000E+010.0000000000E+00+
*       1.2657894737E+01               0
GRID*                346               03.5000000000E+010.0000000000E+00+
*       1.0710526316E+01               0
GRID*                347               03.5000000000E+010.0000000000E+00+
*       8.7631578947E+00               0
GRID*                348               03.5000000000E+010.0000000000E+00+
*       6.8157894737E+00               0
GRID*                349               03.5000000000E+010.0000000000E+00+
*       4.8684210526E+00               0
GRID*                350               03.5000000000E+010.0000000000E+00+
*       2.9210526316E+00               0
GRID*                351               03.5000000000E+010.0000000000E+00+
*       9.7368421053E-01               0
GRID*                352               03.5000000000E+010.0000000000E+00+
*       -9.736842105E-01               0
GRID*                353               03.5000000000E+010.0000000000E+00+
*       -2.921052632E+00               0
GRID*                354               03.5000000000E+010.0000000000E+00+
*       -4.868421053E+00               0
GRID*                355               03.5000000000E+010.0000000000E+00+
*       -6.815789474E+00               0
GRID*                356               03.5000000000E+010.0000000000E+00+
*       -8.763157895E+00               0
GRID*                357               03.5000000000E+010.0000000000E+00+
*       -1.071052632E+01               0
GRID*                358               03.5000000000E+010.0000000000E+00+
*       -1.265789474E+01               0
GRID*                359               03.5000000000E+010.0000000000E+00+
*       -1.460526316E+01               0
GRID*                360               03.5000000000E+010.0000000000E+00+
*       -1.655263158E+01               0
GRID*                361               03.3000000000E+010.0000000000E+00+
*       1.6552631579E+01               0
GRID*                362               03.3000000000E+010.0000000000E+00+
*       1.4605263158E+01               0
GRID*                363               03.3000000000E+010.0000000000E+00+
*       1.2657894737E+01               0
GRID*                364               03.3000000000E+010.0000000000E+00+
*       1.0710526316E+01               0
GRID*                365               03.3000000000E+010.0000000000E+00+
*       8.7631578947E+00               0
GRID*                366               03.3000000000E+010.0000000000E+00+
*       6.8157894737E+00               0
GRID*                367               03.3000000000E+010.0000000000E+00+
*       4.8684210526E+00               0
GRID*                368               03.3000000000E+010.0000000000E+00+
*       2.9210526316E+00               0
GRID*                369               03.3000000000E+010.0000000000E+00+
*       9.7368421053E-01               0
GRID*                370               03.3000000000E+010.0000000000E+00+
*       -9.736842105E-01               0
GRID*                371               03.3000000000E+010.0000000000E+00+
*       -2.921052632E+00               0
GRID*                372               03.3000000000E+010.0000000000E+00+
*       -4.868421053E+00               0
GRID*                373               03.3000000000E+010.0000000000E+00+
*       -6.815789474E+00               0
GRID*                374               03.3000000000E+010.0000000000E+00+
*       -8.763157895E+00               0
GRID*                375               03.3000000000E+010.0000000000E+00+
*       -1.071052632E+01               0
GRID*                376               03.3000000000E+010.0000000000E+00+
*       -1.265789474E+01               0
GRID*                377               03.3000000000E+010.0000000000E+00+
*       -1.460526316E+01               0
GRID*                378               03.3000000000E+010.0000000000E+00+
*       -1.655263158E+01               0
GRID*                379               03.1000000000E+010.0000000000E+00+
*       1.6552631579E+01               0
GRID*                380               03.1000000000E+010.0000000000E+00+
*       1.4605263158E+01               0
GRID*                381               03.1000000000E+010.0000000000E+00+
*       1.2657894737E+01               0
GRID*                382               03.1000000000E+010.0000000000E+00+
*       1.0710526316E+01               0
GRID*                383               03.1000000000E+010.0000000000E+00+
*       8.7631578947E+00               0
GRID*                384               03.1000000000E+010.0000000000E+00+
*       6.8157894737E+00               0
GRID*                385               03.1000000000E+010.0000000000E+00+
*       4.8684210526E+00               0
GRID*                386               03.1000000000E+010.0000000000E+00+
*       2.9210526316E+00               0
GRID*                387               03.1000000000E+010.0000000000E+00+
*       9.7368421053E-01               0
GRID*                388               03.1000000000E+010.0000000000E+00+
*       -9.736842105E-01               0
GRID*                389               03.1000000000E+010.0000000000E+00+
*       -2.921052632E+00               0
GRID*                390               03.1000000000E+010.0000000000E+00+
*       -4.868421053E+00               0
GRID*                391               03.1000000000E+010.0000000000E+00+
*       -6.815789474E+00               0
GRID*                392               03.1000000000E+010.0000000000E+00+
*       -8.763157895E+00               0
GRID*                393               03.1000000000E+010.0000000000E+00+
*       -1.071052632E+01               0
GRID*                394               03.1000000000E+010.0000000000E+00+
*       -1.265789474E+01               0
GRID*                395               03.1000000000E+010.0000000000E+00+
*       -1.460526316E+01               0
GRID*                396               03.1000000000E+010.0000000000E+00+
*       -1.655263158E+01               0
GRID*                397               02.9000000000E+010.0000000000E+00+
*       1.6552631579E+01               0
GRID*                398               02.9000000000E+010.0000000000E+00+
*       1.4605263158E+01               0
GRID*                399               02.9000000000E+010.0000000000E+00+
*       1.2657894737E+01               0
GRID*                400               02.9000000000E+010.0000000000E+00+
*       1.0710526316E+01               0
GRID*                401               02.9000000000E+010.0000000000E+00+
*       8.7631578947E+00               0
GRID*                402               02.9000000000E+010.0000000000E+00+
*       6.8157894737E+00               0
GRID*                403               02.9000000000E+010.0000000000E+00+
*       4.8684210526E+00               0
GRID*                404               02.9000000000E+010.0000000000E+00+
*       2.9210526316E+00               0
GRID*                405               02.9000000000E+010.0000000000E+00+
*       9.7368421053E-01               0
GRID*                406               02.9000000000E+010.0000000000E+00+
*       -9.736842105E-01               0
GRID*                407               02.9000000000E+010.0000000000E+00+
*       -2.921052632E+00               0
GRID*                408               02.9000000000E+010.0000000000E+00+
*       -4.868421053E+00               0
GRID*                409               02.9000000000E+010.0000000000E+00+
*       -6.815789474E+00               0
GRID*                410               02.9000000000E+010.0000000000E+00+
*       -8.763157895E+00               0
GRID*                411               02.9000000000E+010.0000000000E+00+
*       -1.071052632E+01               0
GRID*                412               02.9000000000E+010.0000000000E+00+
*       -1.265789474E+01               0
GRID*                413               02.9000000000E+010.0000000000E+00+
*       -1.460526316E+01               0
GRID*                414               02.9000000000E+010.0000000000E+00+
*       -1.655263158E+01               0
GRID*                415               02.7000000000E+010.0000000000E+00+
*       1.6552631579E+01               0
GRID*                416               02.7000000000E+010.0000000000E+00+
*       1.4605263158E+01               0
GRID*                417               02.7000000000E+010.0000000000E+00+
*       1.2657894737E+01               0
GRID*                418               02.7000000000E+010.0000000000E+00+
*       1.0710526316E+01               0
GRID*                419               02.7000000000E+010.0000000000E+00+
*       8.7631578947E+00               0
GRID*                420               02.7000000000E+010.0000000000E+00+
*       6.8157894737E+00               0
GRID*                421               02.7000000000E+010.0000000000E+00+
*       4.8684210526E+00               0
GRID*                422               02.7000000000E+010.0000000000E+00+
*       2.9210526316E+00               0
GRID*                423               02.7000000000E+010.0000000000E+00+
*       9.7368421053E-01               0
GRID*                424               02.7000000000E+010.0000000000E+00+
*       -9.736842105E-01               0
GRID*                425               02.7000000000E+010.0000000000E+00+
*       -2.921052632E+00               0
GRID*                426               02.7000000000E+010.0000000000E+00+
*       -4.868421053E+00               0
GRID*                427               02.7000000000E+010.0000000000E+00+
*       -6.815789474E+00               0
GRID*                428               02.7000000000E+010.0000000000E+00+
*       -8.763157895E+00               0
GRID*                429               02.7000000000E+010.0000000000E+00+
*       -1.071052632E+01               0
GRID*                430               02.7000000000E+010.0000000000E+00+
*       -1.265789474E+01               0
GRID*                431               02.7000000000E+010.0000000000E+00+
*       -1.460526316E+01               0
GRID*                432               02.7000000000E+010.0000000000E+00+
*       -1.655263158E+01               0
GRID*                433               02.5000000000E+010.0000000000E+00+
*       1.6552631579E+01               0
GRID*                434               02.5000000000E+010.0000000000E+00+
*       1.4605263158E+01               0
GRID*                435               02.5000000000E+010.0000000000E+00+
*       1.2657894737E+01               0
GRID*                436               02.5000000000E+010.0000000000E+00+
*       1.0710526316E+01               0
GRID*                437               02.5000000000E+010.0000000000E+00+
*       8.7631578947E+00               0
GRID*                438               02.5000000000E+010.0000000000E+00+
*       6.8157894737E+00               0
GRID*                439               02.5000000000E+010.0000000000E+00+
*       4.8684210526E+00               0
GRID*                440               02.5000000000E+010.0000000000E+00+
*       2.9210526316E+00               0
GRID*                441               02.5000000000E+010.0000000000E+00+
*       9.7368421053E-01               0
GRID*                442               02.5000000000E+010.0000000000E+00+
*       -9.736842105E-01               0
GRID*                443               02.5000000000E+010.0000000000E+00+
*       -2.921052632E+00               0
GRID*                444               02.5000000000E+010.0000000000E+00+
*       -4.868421053E+00               0
GRID*                445               02.5000000000E+010.0000000000E+00+
*       -6.815789474E+00               0
GRID*                446               02.5000000000E+010.0000000000E+00+
*       -8.763157895E+00               0
GRID*                447               02.5000000000E+010.0000000000E+00+
*       -1.071052632E+01               0
GRID*                448               02.5000000000E+010.0000000000E+00+
*       -1.265789474E+01               0
GRID*                449               02.5000000000E+010.0000000000E+00+
*       -1.460526316E+01               0
GRID*                450               02.5000000000E+010.0000000000E+00+
*       -1.655263158E+01               0
GRID*                451               02.3000000000E+010.0000000000E+00+
*       1.6552631579E+01               0
GRID*                452               02.3000000000E+010.0000000000E+00+
*       1.4605263158E+01               0
GRID*                453               02.3000000000E+010.0000000000E+00+
*       1.2657894737E+01               0
GRID*                454               02.3000000000E+010.0000000000E+00+
*       1.0710526316E+01               0
GRID*                455               02.3000000000E+010.0000000000E+00+
*       8.7631578947E+00               0
GRID*                456               02.3000000000E+010.0000000000E+00+
*       6.8157894737E+00               0
GRID*                457               02.3000000000E+010.0000000000E+00+
*       4.8684210526E+00               0
GRID*                458               02.3000000000E+010.0000000000E+00+
*       2.9210526316E+00               0
GRID*                459               02.3000000000E+010.0000000000E+00+
*       9.7368421053E-01               0
GRID*                460               02.3000000000E+010.0000000000E+00+
*       -9.736842105E-01               0
GRID*                461               02.3000000000E+010.0000000000E+00+
*       -2.921052632E+00               0
GRID*                462               02.3000000000E+010.0000000000E+00+
*       -4.868421053E+00               0
GRID*                463               02.3000000000E+010.0000000000E+00+
*       -6.815789474E+00               0
GRID*                464               02.3000000000E+010.0000000000E+00+
*       -8.763157895E+00               0
GRID*                465               02.3000000000E+010.0000000000E+00+
*       -1.071052632E+01               0
GRID*                466               02.3000000000E+010.0000000000E+00+
*       -1.265789474E+01               0
GRID*                467               02.3000000000E+010.0000000000E+00+
*       -1.460526316E+01               0
GRID*                468               02.3000000000E+010.0000000000E+00+
*       -1.655263158E+01               0
GRID*                469               02.1000000000E+010.0000000000E+00+
*       1.6552631579E+01               0
GRID*                470               02.1000000000E+010.0000000000E+00+
*       1.4605263158E+01               0
GRID*                471               02.1000000000E+010.0000000000E+00+
*       1.2657894737E+01               0
GRID*                472               02.1000000000E+010.0000000000E+00+
*       1.0710526316E+01               0
GRID*                473               02.1000000000E+010.0000000000E+00+
*       8.7631578947E+00               0
GRID*                474               02.1000000000E+010.0000000000E+00+
*       6.8157894737E+00               0
GRID*                475               02.1000000000E+010.0000000000E+00+
*       4.8684210526E+00               0
GRID*                476               02.1000000000E+010.0000000000E+00+
*       2.9210526316E+00               0
GRID*                477               02.1000000000E+010.0000000000E+00+
*       9.7368421053E-01               0
GRID*                478               02.1000000000E+010.0000000000E+00+
*       -9.736842105E-01               0
GRID*                479               02.1000000000E+010.0000000000E+00+
*       -2.921052632E+00               0
GRID*                480               02.1000000000E+010.0000000000E+00+
*       -4.868421053E+00               0
GRID*                481               02.1000000000E+010.0000000000E+00+
*       -6.815789474E+00               0
GRID*                482               02.1000000000E+010.0000000000E+00+
*       -8.763157895E+00               0
GRID*                483               02.1000000000E+010.0000000000E+00+
*       -1.071052632E+01               0
GRID*                484               02.1000000000E+010.0000000000E+00+
*       -1.265789474E+01               0
GRID*                485               02.1000000000E+010.0000000000E+00+
*       -1.460526316E+01               0
GRID*                486               02.1000000000E+010.0000000000E+00+
*       -1.655263158E+01               0
GRID*                487               01.9000000000E+010.0000000000E+00+
*       1.6552631579E+01               0
GRID*                488               01.9000000000E+010.0000000000E+00+
*       1.4605263158E+01               0
GRID*                489               01.9000000000E+010.0000000000E+00+
*       1.2657894737E+01               0
GRID*                490               01.9000000000E+010.0000000000E+00+
*       1.0710526316E+01               0
GRID*                491               01.9000000000E+010.0000000000E+00+
*       8.7631578947E+00               0
GRID*                492               01.9000000000E+010.0000000000E+00+
*       6.8157894737E+00               0
GRID*                493               01.9000000000E+010.0000000000E+00+
*       4.8684210526E+00               0
GRID*                494               01.9000000000E+010.0000000000E+00+
*       2.9210526316E+00               0
GRID*                495               01.9000000000E+010.0000000000E+00+
*       9.7368421053E-01               0
GRID*                496               01.9000000000E+010.0000000000E+00+
*       -9.736842105E-01               0
GRID*                497               01.9000000000E+010.0000000000E+00+
*       -2.921052632E+00               0
GRID*                498               01.9000000000E+010.0000000000E+00+
*       -4.868421053E+00               0
GRID*                499               01.9000000000E+010.0000000000E+00+
*       -6.815789474E+00               0
GRID*                500               01.9000000000E+010.0000000000E+00+
*       -8.763157895E+00               0
GRID*                501               01.9000000000E+010.0000000000E+00+
*       -1.071052632E+01               0
GRID*                502               01.9000000000E+010.0000000000E+00+
*       -1.265789474E+01               0
GRID*                503               01.9000000000E+010.0000000000E+00+
*       -1.460526316E+01               0
GRID*                504               01.9000000000E+010.0000000000E+00+
*       -1.655263158E+01               0
GRID*                505               01.7000000000E+010.0000000000E+00+
*       1.6552631579E+01               0
GRID*                506               01.7000000000E+010.0000000000E+00+
*       1.4605263158E+01               0
GRID*                507               01.7000000000E+010.0000000000E+00+
*       1.2657894737E+01               0
GRID*                508               01.7000000000E+010.0000000000E+00+
*       1.0710526316E+01               0
GRID*                509               01.7000000000E+010.0000000000E+00+
*       8.7631578947E+00               0
GRID*                510               01.7000000000E+010.0000000000E+00+
*       6.8157894737E+00               0
GRID*                511               01.7000000000E+010.0000000000E+00+
*       4.8684210526E+00               0
GRID*                512               01.7000000000E+010.0000000000E+00+
*       2.9210526316E+00               0
GRID*                513               01.7000000000E+010.0000000000E+00+
*       9.7368421053E-01               0
GRID*                514               01.7000000000E+010.0000000000E+00+
*       -9.736842105E-01               0
GRID*                515               01.7000000000E+010.0000000000E+00+
*       -2.921052632E+00               0
GRID*                516               01.7000000000E+010.0000000000E+00+
*       -4.868421053E+00               0
GRID*                517               01.7000000000E+010.0000000000E+00+
*       -6.815789474E+00               0
GRID*                518               01.7000000000E+010.0000000000E+00+
*       -8.763157895E+00               0
GRID*                519               01.7000000000E+010.0000000000E+00+
*       -1.071052632E+01               0
GRID*                520               01.7000000000E+010.0000000000E+00+
*       -1.265789474E+01               0
GRID*                521               01.7000000000E+010.0000000000E+00+
*       -1.460526316E+01               0
GRID*                522               01.7000000000E+010.0000000000E+00+
*       -1.655263158E+01               0
GRID*                523               01.5000000000E+010.0000000000E+00+
*       1.6552631579E+01               0
GRID*                524               01.5000000000E+010.0000000000E+00+
*       1.4605263158E+01               0
GRID*                525               01.5000000000E+010.0000000000E+00+
*       1.2657894737E+01               0
GRID*                526               01.5000000000E+010.0000000000E+00+
*       1.0710526316E+01               0
GRID*                527               01.5000000000E+010.0000000000E+00+
*       8.7631578947E+00               0
GRID*                528               01.5000000000E+010.0000000000E+00+
*       6.8157894737E+00               0
GRID*                529               01.5000000000E+010.0000000000E+00+
*       4.8684210526E+00               0
GRID*                530               01.5000000000E+010.0000000000E+00+
*       2.9210526316E+00               0
GRID*                531               01.5000000000E+010.0000000000E+00+
*       9.7368421053E-01               0
GRID*                532               01.5000000000E+010.0000000000E+00+
*       -9.736842105E-01               0
GRID*                533               01.5000000000E+010.0000000000E+00+
*       -2.921052632E+00               0
GRID*                534               01.5000000000E+010.0000000000E+00+
*       -4.868421053E+00               0
GRID*                535               01.5000000000E+010.0000000000E+00+
*       -6.815789474E+00               0
GRID*                536               01.5000000000E+010.0000000000E+00+
*       -8.763157895E+00               0
GRID*                537               01.5000000000E+010.0000000000E+00+
*       -1.071052632E+01               0
GRID*                538               01.5000000000E+010.0000000000E+00+
*       -1.265789474E+01               0
GRID*                539               01.5000000000E+010.0000000000E+00+
*       -1.460526316E+01               0
GRID*                540               01.5000000000E+010.0000000000E+00+
*       -1.655263158E+01               0
GRID*                541               01.3000000000E+010.0000000000E+00+
*       1.6552631579E+01               0
GRID*                542               01.3000000000E+010.0000000000E+00+
*       1.4605263158E+01               0
GRID*                543               01.3000000000E+010.0000000000E+00+
*       1.2657894737E+01               0
GRID*                544               01.3000000000E+010.0000000000E+00+
*       1.0710526316E+01               0
GRID*                545               01.3000000000E+010.0000000000E+00+
*       8.7631578947E+00               0
GRID*                546               01.3000000000E+010.0000000000E+00+
*       6.8157894737E+00               0
GRID*                547               01.3000000000E+010.0000000000E+00+
*       4.8684210526E+00               0
GRID*                548               01.3000000000E+010.0000000000E+00+
*       2.9210526316E+00               0
GRID*                549               01.3000000000E+010.0000000000E+00+
*       9.7368421053E-01               0
GRID*                550               01.3000000000E+010.0000000000E+00+
*       -9.736842105E-01               0
GRID*                551               01.3000000000E+010.0000000000E+00+
*       -2.921052632E+00               0
GRID*                552               01.3000000000E+010.0000000000E+00+
*       -4.868421053E+00               0
GRID*                553               01.3000000000E+010.0000000000E+00+
*       -6.815789474E+00               0
GRID*                554               01.3000000000E+010.0000000000E+00+
*       -8.763157895E+00               0
GRID*                555               01.3000000000E+010.0000000000E+00+
*       -1.071052632E+01               0
GRID*                556               01.3000000000E+010.0000000000E+00+
*       -1.265789474E+01               0
GRID*                557               01.3000000000E+010.0000000000E+00+
*       -1.460526316E+01               0
GRID*                558               01.3000000000E+010.0000000000E+00+
*       -1.655263158E+01               0
GRID*                559               01.1000000000E+010.0000000000E+00+
*       1.6552631579E+01               0
GRID*                560               01.1000000000E+010.0000000000E+00+
*       1.4605263158E+01               0
GRID*                561               01.1000000000E+010.0000000000E+00+
*       1.2657894737E+01               0
GRID*                562               01.1000000000E+010.0000000000E+00+
*       1.0710526316E+01               0
GRID*                563               01.1000000000E+010.0000000000E+00+
*       8.7631578947E+00               0
GRID*                564               01.1000000000E+010.0000000000E+00+
*       6.8157894737E+00               0
GRID*                565               01.1000000000E+010.0000000000E+00+
*       4.8684210526E+00               0
GRID*                566               01.1000000000E+010.0000000000E+00+
*       2.9210526316E+00               0
GRID*                567               01.1000000000E+010.0000000000E+00+
*       9.7368421053E-01               0
GRID*                568               01.1000000000E+010.0000000000E+00+
*       -9.736842105E-01               0
GRID*                569               01.1000000000E+010.0000000000E+00+
*       -2.921052632E+00               0
GRID*                570               01.1000000000E+010.0000000000E+00+
*       -4.868421053E+00               0
GRID*                571               01.1000000000E+010.0000000000E+00+
*       -6.815789474E+00               0
GRID*                572               01.1000000000E+010.0000000000E+00+
*       -8.763157895E+00               0
GRID*                573               01.1000000000E+010.0000000000E+00+
*       -1.071052632E+01               0
GRID*                574               01.1000000000E+010.0000000000E+00+
*       -1.265789474E+01               0
GRID*                575               01.1000000000E+010.0000000000E+00+
*       -1.460526316E+01               0
GRID*                576               01.1000000000E+010.0000000000E+00+
*       -1.655263158E+01               0
GRID*                577               09.0000000000E+000.0000000000E+00+
*       1.6552631579E+01               0
GRID*                578               09.0000000000E+000.0000000000E+00+
*       1.4605263158E+01               0
GRID*                579               09.0000000000E+000.0000000000E+00+
*       1.2657894737E+01               0
GRID*                580               09.0000000000E+000.0000000000E+00+
*       1.0710526316E+01               0
GRID*                581               09.0000000000E+000.0000000000E+00+
*       8.7631578947E+00               0
GRID*                582               09.0000000000E+000.0000000000E+00+
*       6.8157894737E+00               0
GRID*                583               09.0000000000E+000.0000000000E+00+
*       4.8684210526E+00               0
GRID*                584               09.0000000000E+000.0000000000E+00+
*       2.9210526316E+00               0
GRID*                585               09.0000000000E+000.0000000000E+00+
*       9.7368421053E-01               0
GRID*                586               09.0000000000E+000.0000000000E+00+
*       -9.736842105E-01               0
GRID*                587               09.0000000000E+000.0000000000E+00+
*       -2.921052632E+00               0
GRID*                588               09.0000000000E+000.0000000000E+00+
*       -4.868421053E+00               0
GRID*                589               09.0000000000E+000.0000000000E+00+
*       -6.815789474E+00               0
GRID*                590               09.0000000000E+000.0000000000E+00+
*       -8.763157895E+00               0
GRID*                591               09.0000000000E+000.0000000000E+00+
*       -1.071052632E+01               0
GRID*                592               09.0000000000E+000.0000000000E+00+
*       -1.265789474E+01               0
GRID*                593               09.0000000000E+000.0000000000E+00+
*       -1.460526316E+01               0
GRID*                594               09.0000000000E+000.0000000000E+00+
*       -1.655263158E+01               0
GRID*                595               07.0000000000E+000.0000000000E+00+
*       1.6552631579E+01               0
GRID*                596               07.0000000000E+000.0000000000E+00+
*       1.4605263158E+01               0
GRID*                597               07.0000000000E+000.0000000000E+00+
*       1.2657894737E+01               0
GRID*                598               07.0000000000E+000.0000000000E+00+
*       1.0710526316E+01               0
GRID*                599               07.0000000000E+000.0000000000E+00+
*       8.7631578947E+00               0
GRID*                600               07.0000000000E+000.0000000000E+00+
*       6.8157894737E+00               0
GRID*                601               07.0000000000E+000.0000000000E+00+
*       4.8684210526E+00               0
GRID*                602               07.0000000000E+000.0000000000E+00+
*       2.9210526316E+00               0
GRID*                603               07.0000000000E+000.0000000000E+00+
*       9.7368421053E-01               0
GRID*                604               07.0000000000E+000.0000000000E+00+
*       -9.736842105E-01               0
GRID*                605               07.0000000000E+000.0000000000E+00+
*       -2.921052632E+00               0
GRID*                606               07.0000000000E+000.0000000000E+00+
*       -4.868421053E+00               0
GRID*                607               07.0000000000E+000.0000000000E+00+
*       -6.815789474E+00               0
GRID*                608               07.0000000000E+000.0000000000E+00+
*       -8.763157895E+00               0
GRID*                609               07.0000000000E+000.0000000000E+00+
*       -1.071052632E+01               0
GRID*                610               07.0000000000E+000.0000000000E+00+
*       -1.265789474E+01               0
GRID*                611               07.0000000000E+000.0000000000E+00+
*       -1.460526316E+01               0
GRID*                612               07.0000000000E+000.0000000000E+00+
*       -1.655263158E+01               0
GRID*                613               05.0000000000E+000.0000000000E+00+
*       1.6552631579E+01               0
GRID*                614               05.0000000000E+000.0000000000E+00+
*       1.4605263158E+01               0
GRID*                615               05.0000000000E+000.0000000000E+00+
*       1.2657894737E+01               0
GRID*                616               05.0000000000E+000.0000000000E+00+
*       1.0710526316E+01               0
GRID*                617               05.0000000000E+000.0000000000E+00+
*       8.7631578947E+00               0
GRID*                618               05.0000000000E+000.0000000000E+00+
*       6.8157894737E+00               0
GRID*                619               05.0000000000E+000.0000000000E+00+
*       4.8684210526E+00               0
GRID*                620               05.0000000000E+000.0000000000E+00+
*       2.9210526316E+00               0
GRID*                621               05.0000000000E+000.0000000000E+00+
*       9.7368421053E-01               0
GRID*                622               05.0000000000E+000.0000000000E+00+
*       -9.736842105E-01               0
GRID*                623               05.0000000000E+000.0000000000E+00+
*       -2.921052632E+00               0
GRID*                624               05.0000000000E+000.0000000000E+00+
*       -4.868421053E+00               0
GRID*                625               05.0000000000E+000.0000000000E+00+
*       -6.815789474E+00               0
GRID*                626               05.0000000000E+000.0000000000E+00+
*       -8.763157895E+00               0
GRID*                627               05.0000000000E+000.0000000000E+00+
*       -1.071052632E+01               0
GRID*                628               05.0000000000E+000.0000000000E+00+
*       -1.265789474E+01               0
GRID*                629               05.0000000000E+000.0000000000E+00+
*       -1.460526316E+01               0
GRID*                630               05.0000000000E+000.0000000000E+00+
*       -1.655263158E+01               0
GRID*                631               03.0000000000E+000.0000000000E+00+
*       1.6552631579E+01               0
GRID*                632               03.0000000000E+000.0000000000E+00+
*       1.4605263158E+01               0
GRID*                633               03.0000000000E+000.0000000000E+00+
*       1.2657894737E+01               0
GRID*                634               03.0000000000E+000.0000000000E+00+
*       1.0710526316E+01               0
GRID*                635               03.0000000000E+000.0000000000E+00+
*       8.7631578947E+00               0
GRID*                636               03.0000000000E+000.0000000000E+00+
*       6.8157894737E+00               0
GRID*                637               03.0000000000E+000.0000000000E+00+
*       4.8684210526E+00               0
GRID*                638               03.0000000000E+000.0000000000E+00+
*       2.9210526316E+00               0
GRID*                639               03.0000000000E+000.0000000000E+00+
*       9.7368421053E-01               0
GRID*                640               03.0000000000E+000.0000000000E+00+
*       -9.736842105E-01               0
GRID*                641               03.0000000000E+000.0000000000E+00+
*       -2.921052632E+00               0
GRID*                642               03.0000000000E+000.0000000000E+00+
*       -4.868421053E+00               0
GRID*                643               03.0000000000E+000.0000000000E+00+
*       -6.815789474E+00               0
GRID*                644               03.0000000000E+000.0000000000E+00+
*       -8.763157895E+00               0
GRID*                645               03.0000000000E+000.0000000000E+00+
*       -1.071052632E+01               0
GRID*                646               03.0000000000E+000.0000000000E+00+
*       -1.265789474E+01               0
GRID*                647               03.0000000000E+000.0000000000E+00+
*       -1.460526316E+01               0
GRID*                648               03.0000000000E+000.0000000000E+00+
*       -1.655263158E+01               0
GRID*                649               01.0000000000E+000.0000000000E+00+
*       1.6552631579E+01               0
GRID*                650               01.0000000000E+000.0000000000E+00+
*       1.4605263158E+01               0
GRID*                651               01.0000000000E+000.0000000000E+00+
*       1.2657894737E+01               0
GRID*                652               01.0000000000E+000.0000000000E+00+
*       1.0710526316E+01               0
GRID*                653               01.0000000000E+000.0000000000E+00+
*       8.7631578947E+00               0
GRID*                654               01.0000000000E+000.0000000000E+00+
*       6.8157894737E+00               0
GRID*                655               01.0000000000E+000.0000000000E+00+
*       4.8684210526E+00               0
GRID*                656               01.0000000000E+000.0000000000E+00+
*       2.9210526316E+00               0
GRID*                657               01.0000000000E+000.0000000000E+00+
*       9.7368421053E-01               0
GRID*                658               01.0000000000E+000.0000000000E+00+
*       -9.736842105E-01               0
GRID*                659               01.0000000000E+000.0000000000E+00+
*       -2.921052632E+00               0
GRID*                660               01.0000000000E+000.0000000000E+00+
*       -4.868421053E+00               0
GRID*                661               01.0000000000E+000.0000000000E+00+
*       -6.815789474E+00               0
GRID*                662               01.0000000000E+000.0000000000E+00+
*       -8.763157895E+00               0
GRID*                663               01.0000000000E+000.0000000000E+00+
*       -1.071052632E+01               0
GRID*                664               01.0000000000E+000.0000000000E+00+
*       -1.265789474E+01               0
GRID*                665               01.0000000000E+000.0000000000E+00+
*       -1.460526316E+01               0
GRID*                666               01.0000000000E+000.0000000000E+00+
*       -1.655263158E+01               0
GRID*                667               0-1.000000000E+000.0000000000E+00+
*       1.6552631579E+01               0
GRID*                668               0-1.000000000E+000.0000000000E+00+
*       1.4605263158E+01               0
GRID*                669               0-1.000000000E+000.0000000000E+00+
*       1.2657894737E+01               0
GRID*                670               0-1.000000000E+000.0000000000E+00+
*       1.0710526316E+01               0
GRID*                671               0-1.000000000E+000.0000000000E+00+
*       8.7631578947E+00               0
GRID*                672               0-1.000000000E+000.0000000000E+00+
*       6.8157894737E+00               0
GRID*                673               0-1.000000000E+000.0000000000E+00+
*       4.8684210526E+00               0
GRID*                674               0-1.000000000E+000.0000000000E+00+
*       2.9210526316E+00               0
GRID*                675               0-1.000000000E+000.0000000000E+00+
*       9.7368421053E-01               0
GRID*                676               0-1.000000000E+000.0000000000E+00+
*       -9.736842105E-01               0
GRID*                677               0-1.000000000E+000.0000000000E+00+
*       -2.921052632E+00               0
GRID*                678               0-1.000000000E+000.0000000000E+00+
*       -4.868421053E+00               0
GRID*                679               0-1.000000000E+000.0000000000E+00+
*       -6.815789474E+00               0
GRID*                680               0-1.000000000E+000.0000000000E+00+
*       -8.763157895E+00               0
GRID*                681               0-1.000000000E+000.0000000000E+00+
*       -1.071052632E+01               0
GRID*                682               0-1.000000000E+000.0000000000E+00+
*       -1.265789474E+01               0
GRID*                683               0-1.000000000E+000.0000000000E+00+
*       -1.460526316E+01               0
GRID*                684               0-1.000000000E+000.0000000000E+00+
*       -1.655263158E+01               0
GRID*                685               0-3.000000000E+000.0000000000E+00+
*       1.6552631579E+01               0
GRID*                686               0-3.000000000E+000.0000000000E+00+
*       1.4605263158E+01               0
GRID*                687               0-3.000000000E+000.0000000000E+00+
*       1.2657894737E+01               0
GRID*                688               0-3.000000000E+000.0000000000E+00+
*       1.0710526316E+01               0
GRID*                689               0-3.000000000E+000.0000000000E+00+
*       8.7631578947E+00               0
GRID*                690               0-3.000000000E+000.0000000000E+00+
*       6.8157894737E+00               0
GRID*                691               0-3.000000000E+000.0000000000E+00+
*       4.8684210526E+00               0
GRID*                692               0-3.000000000E+000.0000000000E+00+
*       2.9210526316E+00               0
GRID*                693               0-3.000000000E+000.0000000000E+00+
*       9.7368421053E-01               0
GRID*                694               0-3.000000000E+000.0000000000E+00+
*       -9.736842105E-01               0
GRID*                695               0-3.000000000E+000.0000000000E+00+
*       -2.921052632E+00               0
GRID*                696               0-3.000000000E+000.0000000000E+00+
*       -4.868421053E+00               0
GRID*                697               0-3.000000000E+000.0000000000E+00+
*       -6.815789474E+00               0
GRID*                698               0-3.000000000E+000.0000000000E+00+
*       -8.763157895E+00               0
GRID*                699               0-3.000000000E+000.0000000000E+00+
*       -1.071052632E+01               0
GRID*                700               0-3.000000000E+000.0000000000E+00+
*       -1.265789474E+01               0
GRID*                701               0-3.000000000E+000.0000000000E+00+
*       -1.460526316E+01               0
GRID*                702               0-3.000000000E+000.0000000000E+00+
*       -1.655263158E+01               0
GRID*                703               0-5.000000000E+000.0000000000E+00+
*       1.6552631579E+01               0
GRID*                704               0-5.000000000E+000.0000000000E+00+
*       1.4605263158E+01               0
GRID*                705               0-5.000000000E+000.0000000000E+00+
*       1.2657894737E+01               0
GRID*                706               0-5.000000000E+000.0000000000E+00+
*       1.0710526316E+01               0
GRID*                707               0-5.000000000E+000.0000000000E+00+
*       8.7631578947E+00               0
GRID*                708               0-5.000000000E+000.0000000000E+00+
*       6.8157894737E+00               0
GRID*                709               0-5.000000000E+000.0000000000E+00+
*       4.8684210526E+00               0
GRID*                710               0-5.000000000E+000.0000000000E+00+
*       2.9210526316E+00               0
GRID*                711               0-5.000000000E+000.0000000000E+00+
*       9.7368421053E-01               0
GRID*                712               0-5.000000000E+000.0000000000E+00+
*       -9.736842105E-01               0
GRID*                713               0-5.000000000E+000.0000000000E+00+
*       -2.921052632E+00               0
GRID*                714               0-5.000000000E+000.0000000000E+00+
*       -4.868421053E+00               0
GRID*                715               0-5.000000000E+000.0000000000E+00+
*       -6.815789474E+00               0
GRID*                716               0-5.000000000E+000.0000000000E+00+
*       -8.763157895E+00               0
GRID*                717               0-5.000000000E+000.0000000000E+00+
*       -1.071052632E+01               0
GRID*                718               0-5.000000000E+000.0000000000E+00+
*       -1.265789474E+01               0
GRID*                719               0-5.000000000E+000.0000000000E+00+
*       -1.460526316E+01               0
GRID*                720               0-5.000000000E+000.0000000000E+00+
*       -1.655263158E+01               0
GRID*                721               0-7.000000000E+000.0000000000E+00+
*       1.6552631579E+01               0
GRID*                722               0-7.000000000E+000.0000000000E+00+
*       1.4605263158E+01               0
GRID*                723               0-7.000000000E+000.0000000000E+00+
*       1.2657894737E+01               0
GRID*                724               0-7.000000000E+000.0000000000E+00+
*       1.0710526316E+01               0
GRID*                725               0-7.000000000E+000.0000000000E+00+
*       8.7631578947E+00               0
GRID*                726               0-7.000000000E+000.0000000000E+00+
*       6.8157894737E+00               0
GRID*                727               0-7.000000000E+000.0000000000E+00+
*       4.8684210526E+00               0
GRID*                728               0-7.000000000E+000.0000000000E+00+
*       2.9210526316E+00               0
GRID*                729               0-7.000000000E+000.0000000000E+00+
*       9.7368421053E-01               0
GRID*                730               0-7.000000000E+000.0000000000E+00+
*       -9.736842105E-01               0
GRID*                731               0-7.000000000E+000.0000000000E+00+
*       -2.921052632E+00               0
GRID*                732               0-7.000000000E+000.0000000000E+00+
*       -4.868421053E+00               0
GRID*                733               0-7.000000000E+000.0000000000E+00+
*       -6.815789474E+00               0
GRID*                734               0-7.000000000E+000.0000000000E+00+
*       -8.763157895E+00               0
GRID*                735               0-7.000000000E+000.0000000000E+00+
*       -1.071052632E+01               0
GRID*                736               0-7.000000000E+000.0000000000E+00+
*       -1.265789474E+01               0
GRID*                737               0-7.000000000E+000.0000000000E+00+
*       -1.460526316E+01               0
GRID*                738               0-7.000000000E+000.0000000000E+00+
*       -1.655263158E+01               0
GRID*                739               0-9.000000000E+000.0000000000E+00+
*       1.6552631579E+01               0
GRID*                740               0-9.000000000E+000.0000000000E+00+
*       1.4605263158E+01               0
GRID*                741               0-9.000000000E+000.0000000000E+00+
*       1.2657894737E+01               0
GRID*                742               0-9.000000000E+000.0000000000E+00+
*       1.0710526316E+01               0
GRID*                743               0-9.000000000E+000.0000000000E+00+
*       8.7631578947E+00               0
GRID*                744               0-9.000000000E+000.0000000000E+00+
*       6.8157894737E+00               0
GRID*                745               0-9.000000000E+000.0000000000E+00+
*       4.8684210526E+00               0
GRID*                746               0-9.000000000E+000.0000000000E+00+
*       2.9210526316E+00               0
GRID*                747               0-9.000000000E+000.0000000000E+00+
*       9.7368421053E-01               0
GRID*                748               0-9.000000000E+000.0000000000E+00+
*       -9.736842105E-01               0
GRID*                749               0-9.000000000E+000.0000000000E+00+
*       -2.921052632E+00               0
GRID*                750               0-9.000000000E+000.0000000000E+00+
*       -4.868421053E+00               0
GRID*                751               0-9.000000000E+000.0000000000E+00+
*       -6.815789474E+00               0
GRID*                752               0-9.000000000E+000.0000000000E+00+
*       -8.763157895E+00               0
GRID*                753               0-9.000000000E+000.0000000000E+00+
*       -1.071052632E+01               0
GRID*                754               0-9.000000000E+000.0000000000E+00+
*       -1.265789474E+01               0
GRID*                755               0-9.000000000E+000.0000000000E+00+
*       -1.460526316E+01               0
GRID*                756               0-9.000000000E+000.0000000000E+00+
*       -1.655263158E+01               0
GRID*                757               0-1.100000000E+010.0000000000E+00+
*       1.6552631579E+01               0
GRID*                758               0-1.100000000E+010.0000000000E+00+
*       1.4605263158E+01               0
GRID*                759               0-1.100000000E+010.0000000000E+00+
*       1.2657894737E+01               0
GRID*                760               0-1.100000000E+010.0000000000E+00+
*       1.0710526316E+01               0
GRID*                761               0-1.100000000E+010.0000000000E+00+
*       8.7631578947E+00               0
GRID*                762               0-1.100000000E+010.0000000000E+00+
*       6.8157894737E+00               0
GRID*                763               0-1.100000000E+010.0000000000E+00+
*       4.8684210526E+00               0
GRID*                764               0-1.100000000E+010.0000000000E+00+
*       2.9210526316E+00               0
GRID*                765               0-1.100000000E+010.0000000000E+00+
*       9.7368421053E-01               0
GRID*                766               0-1.100000000E+010.0000000000E+00+
*       -9.736842105E-01               0
GRID*                767               0-1.100000000E+010.0000000000E+00+
*       -2.921052632E+00               0
GRID*                768               0-1.100000000E+010.0000000000E+00+
*       -4.868421053E+00               0
GRID*                769               0-1.100000000E+010.0000000000E+00+
*       -6.815789474E+00               0
GRID*                770               0-1.100000000E+010.0000000000E+00+
*       -8.763157895E+00               0
GRID*                771               0-1.100000000E+010.0000000000E+00+
*       -1.071052632E+01               0
GRID*                772               0-1.100000000E+010.0000000000E+00+
*       -1.265789474E+01               0
GRID*                773               0-1.100000000E+010.0000000000E+00+
*       -1.460526316E+01               0
GRID*                774               0-1.100000000E+010.0000000000E+00+
*       -1.655263158E+01               0
GRID*                775               0-1.300000000E+010.0000000000E+00+
*       1.6552631579E+01               0
GRID*                776               0-1.300000000E+010.0000000000E+00+
*       1.4605263158E+01               0
GRID*                777               0-1.300000000E+010.0000000000E+00+
*       1.2657894737E+01               0
GRID*                778               0-1.300000000E+010.0000000000E+00+
*       1.0710526316E+01               0
GRID*                779               0-1.300000000E+010.0000000000E+00+
*       8.7631578947E+00               0
GRID*                780               0-1.300000000E+010.0000000000E+00+
*       6.8157894737E+00               0
GRID*                781               0-1.300000000E+010.0000000000E+00+
*       4.8684210526E+00               0
GRID*                782               0-1.300000000E+010.0000000000E+00+
*       2.9210526316E+00               0
GRID*                783               0-1.300000000E+010.0000000000E+00+
*       9.7368421053E-01               0
GRID*                784               0-1.300000000E+010.0000000000E+00+
*       -9.736842105E-01               0
GRID*                785               0-1.300000000E+010.0000000000E+00+
*       -2.921052632E+00               0
GRID*                786               0-1.300000000E+010.0000000000E+00+
*       -4.868421053E+00               0
GRID*                787               0-1.300000000E+010.0000000000E+00+
*       -6.815789474E+00               0
GRID*                788               0-1.300000000E+010.0000000000E+00+
*       -8.763157895E+00               0
GRID*                789               0-1.300000000E+010.0000000000E+00+
*       -1.071052632E+01               0
GRID*                790               0-1.300000000E+010.0000000000E+00+
*       -1.265789474E+01               0
GRID*                791               0-1.300000000E+010.0000000000E+00+
*       -1.460526316E+01               0
GRID*                792               0-1.300000000E+010.0000000000E+00+
*       -1.655263158E+01               0
GRID*                793               0-1.500000000E+010.0000000000E+00+
*       1.6552631579E+01               0
GRID*                794               0-1.500000000E+010.0000000000E+00+
*       1.4605263158E+01               0
GRID*                795               0-1.500000000E+010.0000000000E+00+
*       1.2657894737E+01               0
GRID*                796               0-1.500000000E+010.0000000000E+00+
*       1.0710526316E+01               0
GRID*                797               0-1.500000000E+010.0000000000E+00+
*       8.7631578947E+00               0
GRID*                798               0-1.500000000E+010.0000000000E+00+
*       6.8157894737E+00               0
GRID*                799               0-1.500000000E+010.0000000000E+00+
*       4.8684210526E+00               0
GRID*                800               0-1.500000000E+010.0000000000E+00+
*       2.9210526316E+00               0
GRID*                801               0-1.500000000E+010.0000000000E+00+
*       9.7368421053E-01               0
GRID*                802               0-1.500000000E+010.0000000000E+00+
*       -9.736842105E-01               0
GRID*                803               0-1.500000000E+010.0000000000E+00+
*       -2.921052632E+00               0
GRID*                804               0-1.500000000E+010.0000000000E+00+
*       -4.868421053E+00               0
GRID*                805               0-1.500000000E+010.0000000000E+00+
*       -6.815789474E+00               0
GRID*                806               0-1.500000000E+010.0000000000E+00+
*       -8.763157895E+00               0
GRID*                807               0-1.500000000E+010.0000000000E+00+
*       -1.071052632E+01               0
GRID*                808               0-1.500000000E+010.0000000000E+00+
*       -1.265789474E+01               0
GRID*                809               0-1.500000000E+010.0000000000E+00+
*       -1.460526316E+01               0
GRID*                810               0-1.500000000E+010.0000000000E+00+
*       -1.655263158E+01               0
GRID*                811               0-1.700000000E+010.0000000000E+00+
*       1.6552631579E+01               0
GRID*                812               0-1.700000000E+010.0000000000E+00+
*       1.4605263158E+01               0
GRID*                813               0-1.700000000E+010.0000000000E+00+
*       1.2657894737E+01               0
GRID*                814               0-1.700000000E+010.0000000000E+00+
*       1.0710526316E+01               0
GRID*                815               0-1.700000000E+010.0000000000E+00+
*       8.7631578947E+00               0
GRID*                816               0-1.700000000E+010.0000000000E+00+
*       6.8157894737E+00               0
GRID*                817               0-1.700000000E+010.0000000000E+00+
*       4.8684210526E+00               0
GRID*                818               0-1.700000000E+010.0000000000E+00+
*       2.9210526316E+00               0
GRID*                819               0-1.700000000E+010.0000000000E+00+
*       9.7368421053E-01               0
GRID*                820               0-1.700000000E+010.0000000000E+00+
*       -9.736842105E-01               0
GRID*                821               0-1.700000000E+010.0000000000E+00+
*       -2.921052632E+00               0
GRID*                822               0-1.700000000E+010.0000000000E+00+
*       -4.868421053E+00               0
GRID*                823               0-1.700000000E+010.0000000000E+00+
*       -6.815789474E+00               0
GRID*                824               0-1.700000000E+010.0000000000E+00+
*       -8.763157895E+00               0
GRID*                825               0-1.700000000E+010.0000000000E+00+
*       -1.071052632E+01               0
GRID*                826               0-1.700000000E+010.0000000000E+00+
*       -1.265789474E+01               0
GRID*                827               0-1.700000000E+010.0000000000E+00+
*       -1.460526316E+01               0
GRID*                828               0-1.700000000E+010.0000000000E+00+
*       -1.655263158E+01               0
GRID*                829               0-1.900000000E+010.0000000000E+00+
*       1.6552631579E+01               0
GRID*                830               0-1.900000000E+010.0000000000E+00+
*       1.4605263158E+01               0
GRID*                831               0-1.900000000E+010.0000000000E+00+
*       1.2657894737E+01               0
GRID*                832               0-1.900000000E+010.0000000000E+00+
*       1.0710526316E+01               0
GRID*                833               0-1.900000000E+010.0000000000E+00+
*       8.7631578947E+00               0
GRID*                834               0-1.900000000E+010.0000000000E+00+
*       6.8157894737E+00               0
GRID*                835               0-1.900000000E+010.0000000000E+00+
*       4.8684210526E+00               0
GRID*                836               0-1.900000000E+010.0000000000E+00+
*       2.9210526316E+00               0
GRID*                837               0-1.900000000E+010.0000000000E+00+
*       9.7368421053E-01               0
GRID*                838               0-1.900000000E+010.0000000000E+00+
*       -9.736842105E-01               0
GRID*                839               0-1.900000000E+010.0000000000E+00+
*       -2.921052632E+00               0
GRID*                840               0-1.900000000E+010.0000000000E+00+
*       -4.868421053E+00               0
GRID*                841               0-1.900000000E+010.0000000000E+00+
*       -6.815789474E+00               0
GRID*                842               0-1.900000000E+010.0000000000E+00+
*       -8.763157895E+00               0
GRID*                843               0-1.900000000E+010.0000000000E+00+
*       -1.071052632E+01               0
GRID*                844               0-1.900000000E+010.0000000000E+00+
*       -1.265789474E+01               0
GRID*                845               0-1.900000000E+010.0000000000E+00+
*       -1.460526316E+01               0
GRID*                846               0-1.900000000E+010.0000000000E+00+
*       -1.655263158E+01               0
GRID*                847               0-2.100000000E+010.0000000000E+00+
*       1.6552631579E+01               0
GRID*                848               0-2.100000000E+010.0000000000E+00+
*       1.4605263158E+01               0
GRID*                849               0-2.100000000E+010.0000000000E+00+
*       1.2657894737E+01               0
GRID*                850               0-2.100000000E+010.0000000000E+00+
*       1.0710526316E+01               0
GRID*                851               0-2.100000000E+010.0000000000E+00+
*       8.7631578947E+00               0
GRID*                852               0-2.100000000E+010.0000000000E+00+
*       6.8157894737E+00               0
GRID*                853               0-2.100000000E+010.0000000000E+00+
*       4.8684210526E+00               0
GRID*                854               0-2.100000000E+010.0000000000E+00+
*       2.9210526316E+00               0
GRID*                855               0-2.100000000E+010.0000000000E+00+
*       9.7368421053E-01               0
GRID*                856               0-2.100000000E+010.0000000000E+00+
*       -9.736842105E-01               0
GRID*                857               0-2.100000000E+010.0000000000E+00+
*       -2.921052632E+00               0
GRID*                858               0-2.100000000E+010.0000000000E+00+
*       -4.868421053E+00               0
GRID*                859               0-2.100000000E+010.0000000000E+00+
*       -6.815789474E+00               0
GRID*                860               0-2.100000000E+010.0000000000E+00+
*       -8.763157895E+00               0
GRID*                861               0-2.100000000E+010.0000000000E+00+
*       -1.071052632E+01               0
GRID*                862               0-2.100000000E+010.0000000000E+00+
*       -1.265789474E+01               0
GRID*                863               0-2.100000000E+010.0000000000E+00+
*       -1.460526316E+01               0
GRID*                864               0-2.100000000E+010.0000000000E+00+
*       -1.655263158E+01               0
GRID*                865               0-2.300000000E+010.0000000000E+00+
*       1.6552631579E+01               0
GRID*                866               0-2.300000000E+010.0000000000E+00+
*       1.4605263158E+01               0
GRID*                867               0-2.300000000E+010.0000000000E+00+
*       1.2657894737E+01               0
GRID*                868               0-2.300000000E+010.0000000000E+00+
*       1.0710526316E+01               0
GRID*                869               0-2.300000000E+010.0000000000E+00+
*       8.7631578947E+00               0
GRID*                870               0-2.300000000E+010.0000000000E+00+
*       6.8157894737E+00               0
GRID*                871               0-2.300000000E+010.0000000000E+00+
*       4.8684210526E+00               0
GRID*                872               0-2.300000000E+010.0000000000E+00+
*       2.9210526316E+00               0
GRID*                873               0-2.300000000E+010.0000000000E+00+
*       9.7368421053E-01               0
GRID*                874               0-2.300000000E+010.0000000000E+00+
*       -9.736842105E-01               0
GRID*                875               0-2.300000000E+010.0000000000E+00+
*       -2.921052632E+00               0
GRID*                876               0-2.300000000E+010.0000000000E+00+
*       -4.868421053E+00               0
GRID*                877               0-2.300000000E+010.0000000000E+00+
*       -6.815789474E+00               0
GRID*                878               0-2.300000000E+010.0000000000E+00+
*       -8.763157895E+00               0
GRID*                879               0-2.300000000E+010.0000000000E+00+
*       -1.071052632E+01               0
GRID*                880               0-2.300000000E+010.0000000000E+00+
*       -1.265789474E+01               0
GRID*                881               0-2.300000000E+010.0000000000E+00+
*       -1.460526316E+01               0
GRID*                882               0-2.300000000E+010.0000000000E+00+
*       -1.655263158E+01               0
GRID*                883               0-2.500000000E+010.0000000000E+00+
*       1.6552631579E+01               0
GRID*                884               0-2.500000000E+010.0000000000E+00+
*       1.4605263158E+01               0
GRID*                885               0-2.500000000E+010.0000000000E+00+
*       1.2657894737E+01               0
GRID*                886               0-2.500000000E+010.0000000000E+00+
*       1.0710526316E+01               0
GRID*                887               0-2.500000000E+010.0000000000E+00+
*       8.7631578947E+00               0
GRID*                888               0-2.500000000E+010.0000000000E+00+
*       6.8157894737E+00               0
GRID*                889               0-2.500000000E+010.0000000000E+00+
*       4.8684210526E+00               0
GRID*                890               0-2.500000000E+010.0000000000E+00+
*       2.9210526316E+00               0
GRID*                891               0-2.500000000E+010.0000000000E+00+
*       9.7368421053E-01               0
GRID*                892               0-2.500000000E+010.0000000000E+00+
*       -9.736842105E-01               0
GRID*                893               0-2.500000000E+010.0000000000E+00+
*       -2.921052632E+00               0
GRID*                894               0-2.500000000E+010.0000000000E+00+
*       -4.868421053E+00               0
GRID*                895               0-2.500000000E+010.0000000000E+00+
*       -6.815789474E+00               0
GRID*                896               0-2.500000000E+010.0000000000E+00+
*       -8.763157895E+00               0
GRID*                897               0-2.500000000E+010.0000000000E+00+
*       -1.071052632E+01               0
GRID*                898               0-2.500000000E+010.0000000000E+00+
*       -1.265789474E+01               0
GRID*                899               0-2.500000000E+010.0000000000E+00+
*       -1.460526316E+01               0
GRID*                900               0-2.500000000E+010.0000000000E+00+
*       -1.655263158E+01               0
GRID*                901               0-2.700000000E+010.0000000000E+00+
*       1.6552631579E+01               0
GRID*                902               0-2.700000000E+010.0000000000E+00+
*       1.4605263158E+01               0
GRID*                903               0-2.700000000E+010.0000000000E+00+
*       1.2657894737E+01               0
GRID*                904               0-2.700000000E+010.0000000000E+00+
*       1.0710526316E+01               0
GRID*                905               0-2.700000000E+010.0000000000E+00+
*       8.7631578947E+00               0
GRID*                906               0-2.700000000E+010.0000000000E+00+
*       6.8157894737E+00               0
GRID*                907               0-2.700000000E+010.0000000000E+00+
*       4.8684210526E+00               0
GRID*                908               0-2.700000000E+010.0000000000E+00+
*       2.9210526316E+00               0
GRID*                909               0-2.700000000E+010.0000000000E+00+
*       9.7368421053E-01               0
GRID*                910               0-2.700000000E+010.0000000000E+00+
*       -9.736842105E-01               0
GRID*                911               0-2.700000000E+010.0000000000E+00+
*       -2.921052632E+00               0
GRID*                912               0-2.700000000E+010.0000000000E+00+
*       -4.868421053E+00               0
GRID*                913               0-2.700000000E+010.0000000000E+00+
*       -6.815789474E+00               0
GRID*                914               0-2.700000000E+010.0000000000E+00+
*       -8.763157895E+00               0
GRID*                915               0-2.700000000E+010.0000000000E+00+
*       -1.071052632E+01               0
GRID*                916               0-2.700000000E+010.0000000000E+00+
*       -1.265789474E+01               0
GRID*                917               0-2.700000000E+010.0000000000E+00+
*       -1.460526316E+01               0
GRID*                918               0-2.700000000E+010.0000000000E+00+
*       -1.655263158E+01               0
GRID*                919               0-2.900000000E+010.0000000000E+00+
*       1.6552631579E+01               0
GRID*                920               0-2.900000000E+010.0000000000E+00+
*       1.4605263158E+01               0
GRID*                921               0-2.900000000E+010.0000000000E+00+
*       1.2657894737E+01               0
GRID*                922               0-2.900000000E+010.0000000000E+00+
*       1.0710526316E+01               0
GRID*                923               0-2.900000000E+010.0000000000E+00+
*       8.7631578947E+00               0
GRID*                924               0-2.900000000E+010.0000000000E+00+
*       6.8157894737E+00               0
GRID*                925               0-2.900000000E+010.0000000000E+00+
*       4.8684210526E+00               0
GRID*                926               0-2.900000000E+010.0000000000E+00+
*       2.9210526316E+00               0
GRID*                927               0-2.900000000E+010.0000000000E+00+
*       9.7368421053E-01               0
GRID*                928               0-2.900000000E+010.0000000000E+00+
*       -9.736842105E-01               0
GRID*                929               0-2.900000000E+010.0000000000E+00+
*       -2.921052632E+00               0
GRID*                930               0-2.900000000E+010.0000000000E+00+
*       -4.868421053E+00               0
GRID*                931               0-2.900000000E+010.0000000000E+00+
*       -6.815789474E+00               0
GRID*                932               0-2.900000000E+010.0000000000E+00+
*       -8.763157895E+00               0
GRID*                933               0-2.900000000E+010.0000000000E+00+
*       -1.071052632E+01               0
GRID*                934               0-2.900000000E+010.0000000000E+00+
*       -1.265789474E+01               0
GRID*                935               0-2.900000000E+010.0000000000E+00+
*       -1.460526316E+01               0
GRID*                936               0-2.900000000E+010.0000000000E+00+
*       -1.655263158E+01               0
GRID*                937               0-3.100000000E+010.0000000000E+00+
*       1.6552631579E+01               0
GRID*                938               0-3.100000000E+010.0000000000E+00+
*       1.4605263158E+01               0
GRID*                939               0-3.100000000E+010.0000000000E+00+
*       1.2657894737E+01               0
GRID*                940               0-3.100000000E+010.0000000000E+00+
*       1.0710526316E+01               0
GRID*                941               0-3.100000000E+010.0000000000E+00+
*       8.7631578947E+00               0
GRID*                942               0-3.100000000E+010.0000000000E+00+
*       6.8157894737E+00               0
GRID*                943               0-3.100000000E+010.0000000000E+00+
*       4.8684210526E+00               0
GRID*                944               0-3.100000000E+010.0000000000E+00+
*       2.9210526316E+00               0
GRID*                945               0-3.100000000E+010.0000000000E+00+
*       9.7368421053E-01               0
GRID*                946               0-3.100000000E+010.0000000000E+00+
*       -9.736842105E-01               0
GRID*                947               0-3.100000000E+010.0000000000E+00+
*       -2.921052632E+00               0
GRID*                948               0-3.100000000E+010.0000000000E+00+
*       -4.868421053E+00               0
GRID*                949               0-3.100000000E+010.0000000000E+00+
*       -6.815789474E+00               0
GRID*                950               0-3.100000000E+010.0000000000E+00+
*       -8.763157895E+00               0
GRID*                951               0-3.100000000E+010.0000000000E+00+
*       -1.071052632E+01               0
GRID*                952               0-3.100000000E+010.0000000000E+00+
*       -1.265789474E+01               0
GRID*                953               0-3.100000000E+010.0000000000E+00+
*       -1.460526316E+01               0
GRID*                954               0-3.100000000E+010.0000000000E+00+
*       -1.655263158E+01               0
GRID*                955               0-3.300000000E+010.0000000000E+00+
*       1.6552631579E+01               0
GRID*                956               0-3.300000000E+010.0000000000E+00+
*       1.4605263158E+01               0
GRID*                957               0-3.300000000E+010.0000000000E+00+
*       1.2657894737E+01               0
GRID*                958               0-3.300000000E+010.0000000000E+00+
*       1.0710526316E+01               0
GRID*                959               0-3.300000000E+010.0000000000E+00+
*       8.7631578947E+00               0
GRID*                960               0-3.300000000E+010.0000000000E+00+
*       6.8157894737E+00               0
GRID*                961               0-3.300000000E+010.0000000000E+00+
*       4.8684210526E+00               0
GRID*                962               0-3.300000000E+010.0000000000E+00+
*       2.9210526316E+00               0
GRID*                963               0-3.300000000E+010.0000000000E+00+
*       9.7368421053E-01               0
GRID*                964               0-3.300000000E+010.0000000000E+00+
*       -9.736842105E-01               0
GRID*                965               0-3.300000000E+010.0000000000E+00+
*       -2.921052632E+00               0
GRID*                966               0-3.300000000E+010.0000000000E+00+
*       -4.868421053E+00               0
GRID*                967               0-3.300000000E+010.0000000000E+00+
*       -6.815789474E+00               0
GRID*                968               0-3.300000000E+010.0000000000E+00+
*       -8.763157895E+00               0
GRID*                969               0-3.300000000E+010.0000000000E+00+
*       -1.071052632E+01               0
GRID*                970               0-3.300000000E+010.0000000000E+00+
*       -1.265789474E+01               0
GRID*                971               0-3.300000000E+010.0000000000E+00+
*       -1.460526316E+01               0
GRID*                972               0-3.300000000E+010.0000000000E+00+
*       -1.655263158E+01               0
GRID*                973               0-3.500000000E+010.0000000000E+00+
*       1.6552631579E+01               0
GRID*                974               0-3.500000000E+010.0000000000E+00+
*       1.4605263158E+01               0
GRID*                975               0-3.500000000E+010.0000000000E+00+
*       1.2657894737E+01               0
GRID*                976               0-3.500000000E+010.0000000000E+00+
*       1.0710526316E+01               0
GRID*                977               0-3.500000000E+010.0000000000E+00+
*       8.7631578947E+00               0
GRID*                978               0-3.500000000E+010.0000000000E+00+
*       6.8157894737E+00               0
GRID*                979               0-3.500000000E+010.0000000000E+00+
*       4.8684210526E+00               0
GRID*                980               0-3.500000000E+010.0000000000E+00+
*       2.9210526316E+00               0
GRID*                981               0-3.500000000E+010.0000000000E+00+
*       9.7368421053E-01               0
GRID*                982               0-3.500000000E+010.0000000000E+00+
*       -9.736842105E-01               0
GRID*                983               0-3.500000000E+010.0000000000E+00+
*       -2.921052632E+00               0
GRID*                984               0-3.500000000E+010.0000000000E+00+
*       -4.868421053E+00               0
GRID*                985               0-3.500000000E+010.0000000000E+00+
*       -6.815789474E+00               0
GRID*                986               0-3.500000000E+010.0000000000E+00+
*       -8.763157895E+00               0
GRID*                987               0-3.500000000E+010.0000000000E+00+
*       -1.071052632E+01               0
GRID*                988               0-3.500000000E+010.0000000000E+00+
*       -1.265789474E+01               0
GRID*                989               0-3.500000000E+010.0000000000E+00+
*       -1.460526316E+01               0
GRID*                990               0-3.500000000E+010.0000000000E+00+
*       -1.655263158E+01               0
GRID*                991               0-3.700000000E+010.0000000000E+00+
*       1.6552631579E+01               0
GRID*                992               0-3.700000000E+010.0000000000E+00+
*       1.4605263158E+01               0
GRID*                993               0-3.700000000E+010.0000000000E+00+
*       1.2657894737E+01               0
GRID*                994               0-3.700000000E+010.0000000000E+00+
*       1.0710526316E+01               0
GRID*                995               0-3.700000000E+010.0000000000E+00+
*       8.7631578947E+00               0
GRID*                996               0-3.700000000E+010.0000000000E+00+
*       6.8157894737E+00               0
GRID*                997               0-3.700000000E+010.0000000000E+00+
*       4.8684210526E+00               0
GRID*                998               0-3.700000000E+010.0000000000E+00+
*       2.9210526316E+00               0
GRID*                999               0-3.700000000E+010.0000000000E+00+
*       9.7368421053E-01               0
GRID*               1000               0-3.700000000E+010.0000000000E+00+
*       -9.736842105E-01               0
GRID*               1001               0-3.700000000E+010.0000000000E+00+
*       -2.921052632E+00               0
GRID*               1002               0-3.700000000E+010.0000000000E+00+
*       -4.868421053E+00               0
GRID*               1003               0-3.700000000E+010.0000000000E+00+
*       -6.815789474E+00               0
GRID*               1004               0-3.700000000E+010.0000000000E+00+
*       -8.763157895E+00               0
GRID*               1005               0-3.700000000E+010.0000000000E+00+
*       -1.071052632E+01               0
GRID*               1006               0-3.700000000E+010.0000000000E+00+
*       -1.265789474E+01               0
GRID*               1007               0-3.700000000E+010.0000000000E+00+
*       -1.460526316E+01               0
GRID*               1008               0-3.700000000E+010.0000000000E+00+
*       -1.655263158E+01               0
GRID*               1009               0-3.900000000E+010.0000000000E+00+
*       1.6552631579E+01               0
GRID*               1010               0-3.900000000E+010.0000000000E+00+
*       1.4605263158E+01               0
GRID*               1011               0-3.900000000E+010.0000000000E+00+
*       1.2657894737E+01               0
GRID*               1012               0-3.900000000E+010.0000000000E+00+
*       1.0710526316E+01               0
GRID*               1013               0-3.900000000E+010.0000000000E+00+
*       8.7631578947E+00               0
GRID*               1014               0-3.900000000E+010.0000000000E+00+
*       6.8157894737E+00               0
GRID*               1015               0-3.900000000E+010.0000000000E+00+
*       4.8684210526E+00               0
GRID*               1016               0-3.900000000E+010.0000000000E+00+
*       2.9210526316E+00               0
GRID*               1017               0-3.900000000E+010.0000000000E+00+
*       9.7368421053E-01               0
GRID*               1018               0-3.900000000E+010.0000000000E+00+
*       -9.736842105E-01               0
GRID*               1019               0-3.900000000E+010.0000000000E+00+
*       -2.921052632E+00               0
GRID*               1020               0-3.900000000E+010.0000000000E+00+
*       -4.868421053E+00               0
GRID*               1021               0-3.900000000E+010.0000000000E+00+
*       -6.815789474E+00               0
GRID*               1022               0-3.900000000E+010.0000000000E+00+
*       -8.763157895E+00               0
GRID*               1023               0-3.900000000E+010.0000000000E+00+
*       -1.071052632E+01               0
GRID*               1024               0-3.900000000E+010.0000000000E+00+
*       -1.265789474E+01               0
GRID*               1025               0-3.900000000E+010.0000000000E+00+
*       -1.460526316E+01               0
GRID*               1026               0-3.900000000E+010.0000000000E+00+
*       -1.655263158E+01               0
GRID*               1027               0-4.100000000E+010.0000000000E+00+
*       1.6552631579E+01               0
GRID*               1028               0-4.100000000E+010.0000000000E+00+
*       1.4605263158E+01               0
GRID*               1029               0-4.100000000E+010.0000000000E+00+
*       1.2657894737E+01               0
GRID*               1030               0-4.100000000E+010.0000000000E+00+
*       1.0710526316E+01               0
GRID*               1031               0-4.100000000E+010.0000000000E+00+
*       8.7631578947E+00               0
GRID*               1032               0-4.100000000E+010.0000000000E+00+
*       6.8157894737E+00               0
GRID*               1033               0-4.100000000E+010.0000000000E+00+
*       4.8684210526E+00               0
GRID*               1034               0-4.100000000E+010.0000000000E+00+
*       2.9210526316E+00               0
GRID*               1035               0-4.100000000E+010.0000000000E+00+
*       9.7368421053E-01               0
GRID*               1036               0-4.100000000E+010.0000000000E+00+
*       -9.736842105E-01               0
GRID*               1037               0-4.100000000E+010.0000000000E+00+
*       -2.921052632E+00               0
GRID*               1038               0-4.100000000E+010.0000000000E+00+
*       -4.868421053E+00               0
GRID*               1039               0-4.100000000E+010.0000000000E+00+
*       -6.815789474E+00               0
GRID*               1040               0-4.100000000E+010.0000000000E+00+
*       -8.763157895E+00               0
GRID*               1041               0-4.100000000E+010.0000000000E+00+
*       -1.071052632E+01               0
GRID*               1042               0-4.100000000E+010.0000000000E+00+
*       -1.265789474E+01               0
GRID*               1043               0-4.100000000E+010.0000000000E+00+
*       -1.460526316E+01               0
GRID*               1044               0-4.100000000E+010.0000000000E+00+
*       -1.655263158E+01               0
GRID*               1045               0-4.300000000E+010.0000000000E+00+
*       1.6552631579E+01               0
GRID*               1046               0-4.300000000E+010.0000000000E+00+
*       1.4605263158E+01               0
GRID*               1047               0-4.300000000E+010.0000000000E+00+
*       1.2657894737E+01               0
GRID*               1048               0-4.300000000E+010.0000000000E+00+
*       1.0710526316E+01               0
GRID*               1049               0-4.300000000E+010.0000000000E+00+
*       8.7631578947E+00               0
GRID*               1050               0-4.300000000E+010.0000000000E+00+
*       6.8157894737E+00               0
GRID*               1051               0-4.300000000E+010.0000000000E+00+
*       4.8684210526E+00               0
GRID*               1052               0-4.300000000E+010.0000000000E+00+
*       2.9210526316E+00               0
GRID*               1053               0-4.300000000E+010.0000000000E+00+
*       9.7368421053E-01               0
GRID*               1054               0-4.300000000E+010.0000000000E+00+
*       -9.736842105E-01               0
GRID*               1055               0-4.300000000E+010.0000000000E+00+
*       -2.921052632E+00               0
GRID*               1056               0-4.300000000E+010.0000000000E+00+
*       -4.868421053E+00               0
GRID*               1057               0-4.300000000E+010.0000000000E+00+
*       -6.815789474E+00               0
GRID*               1058               0-4.300000000E+010.0000000000E+00+
*       -8.763157895E+00               0
GRID*               1059               0-4.300000000E+010.0000000000E+00+
*       -1.071052632E+01               0
GRID*               1060               0-4.300000000E+010.0000000000E+00+
*       -1.265789474E+01               0
GRID*               1061               0-4.300000000E+010.0000000000E+00+
*       -1.460526316E+01               0
GRID*               1062               0-4.300000000E+010.0000000000E+00+
*       -1.655263158E+01               0
GRID*               1063               0-4.500000000E+010.0000000000E+00+
*       1.6552631579E+01               0
GRID*               1064               0-4.500000000E+010.0000000000E+00+
*       1.4605263158E+01               0
GRID*               1065               0-4.500000000E+010.0000000000E+00+
*       1.2657894737E+01               0
GRID*               1066               0-4.500000000E+010.0000000000E+00+
*       1.0710526316E+01               0
GRID*               1067               0-4.500000000E+010.0000000000E+00+
*       8.7631578947E+00               0
GRID*               1068               0-4.500000000E+010.0000000000E+00+
*       6.8157894737E+00               0
GRID*               1069               0-4.500000000E+010.0000000000E+00+
*       4.8684210526E+00               0
GRID*               1070               0-4.500000000E+010.0000000000E+00+
*       2.9210526316E+00               0
GRID*               1071               0-4.500000000E+010.0000000000E+00+
*       9.7368421053E-01               0
GRID*               1072               0-4.500000000E+010.0000000000E+00+
*       -9.736842105E-01               0
GRID*               1073               0-4.500000000E+010.0000000000E+00+
*       -2.921052632E+00               0
GRID*               1074               0-4.500000000E+010.0000000000E+00+
*       -4.868421053E+00               0
GRID*               1075               0-4.500000000E+010.0000000000E+00+
*       -6.815789474E+00               0
GRID*               1076               0-4.500000000E+010.0000000000E+00+
*       -8.763157895E+00               0
GRID*               1077               0-4.500000000E+010.0000000000E+00+
*       -1.071052632E+01               0
GRID*               1078               0-4.500000000E+010.0000000000E+00+
*       -1.265789474E+01               0
GRID*               1079               0-4.500000000E+010.0000000000E+00+
*       -1.460526316E+01               0
GRID*               1080               0-4.500000000E+010.0000000000E+00+
*       -1.655263158E+01               0
GRID*               1081               0-4.700000000E+010.0000000000E+00+
*       1.6552631579E+01               0
GRID*               1082               0-4.700000000E+010.0000000000E+00+
*       1.4605263158E+01               0
GRID*               1083               0-4.700000000E+010.0000000000E+00+
*       1.2657894737E+01               0
GRID*               1084               0-4.700000000E+010.0000000000E+00+
*       1.0710526316E+01               0
GRID*               1085               0-4.700000000E+010.0000000000E+00+
*       8.7631578947E+00               0
GRID*               1086               0-4.700000000E+010.0000000000E+00+
*       6.8157894737E+00               0
GRID*               1087               0-4.700000000E+010.0000000000E+00+
*       4.8684210526E+00               0
GRID*               1088               0-4.700000000E+010.0000000000E+00+
*       2.9210526316E+00               0
GRID*               1089               0-4.700000000E+010.0000000000E+00+
*       9.7368421053E-01               0
GRID*               1090               0-4.700000000E+010.0000000000E+00+
*       -9.736842105E-01               0
GRID*               1091               0-4.700000000E+010.0000000000E+00+
*       -2.921052632E+00               0
GRID*               1092               0-4.700000000E+010.0000000000E+00+
*       -4.868421053E+00               0
GRID*               1093               0-4.700000000E+010.0000000000E+00+
*       -6.815789474E+00               0
GRID*               1094               0-4.700000000E+010.0000000000E+00+
*       -8.763157895E+00               0
GRID*               1095               0-4.700000000E+010.0000000000E+00+
*       -1.071052632E+01               0
GRID*               1096               0-4.700000000E+010.0000000000E+00+
*       -1.265789474E+01               0
GRID*               1097               0-4.700000000E+010.0000000000E+00+
*       -1.460526316E+01               0
GRID*               1098               0-4.700000000E+010.0000000000E+00+
*       -1.655263158E+01               0
GRID*               1099               0-4.900000000E+010.0000000000E+00+
*       1.6552631579E+01               0
GRID*               1100               0-4.900000000E+010.0000000000E+00+
*       1.4605263158E+01               0
GRID*               1101               0-4.900000000E+010.0000000000E+00+
*       1.2657894737E+01               0
GRID*               1102               0-4.900000000E+010.0000000000E+00+
*       1.0710526316E+01               0
GRID*               1103               0-4.900000000E+010.0000000000E+00+
*       8.7631578947E+00               0
GRID*               1104               0-4.900000000E+010.0000000000E+00+
*       6.8157894737E+00               0
GRID*               1105               0-4.900000000E+010.0000000000E+00+
*       4.8684210526E+00               0
GRID*               1106               0-4.900000000E+010.0000000000E+00+
*       2.9210526316E+00               0
GRID*               1107               0-4.900000000E+010.0000000000E+00+
*       9.7368421053E-01               0
GRID*               1108               0-4.900000000E+010.0000000000E+00+
*       -9.736842105E-01               0
GRID*               1109               0-4.900000000E+010.0000000000E+00+
*       -2.921052632E+00               0
GRID*               1110               0-4.900000000E+010.0000000000E+00+
*       -4.868421053E+00               0
GRID*               1111               0-4.900000000E+010.0000000000E+00+
*       -6.815789474E+00               0
GRID*               1112               0-4.900000000E+010.0000000000E+00+
*       -8.763157895E+00               0
GRID*               1113               0-4.900000000E+010.0000000000E+00+
*       -1.071052632E+01               0
GRID*               1114               0-4.900000000E+010.0000000000E+00+
*       -1.265789474E+01               0
GRID*               1115               0-4.900000000E+010.0000000000E+00+
*       -1.460526316E+01               0
GRID*               1116               0-4.900000000E+010.0000000000E+00+
*       -1.655263158E+01               0
GRID*               1117               0-5.100000000E+010.0000000000E+00+
*       1.6552631579E+01               0
GRID*               1118               0-5.100000000E+010.0000000000E+00+
*       1.4605263158E+01               0
GRID*               1119               0-5.100000000E+010.0000000000E+00+
*       1.2657894737E+01               0
GRID*               1120               0-5.100000000E+010.0000000000E+00+
*       1.0710526316E+01               0
GRID*               1121               0-5.100000000E+010.0000000000E+00+
*       8.7631578947E+00               0
GRID*               1122               0-5.100000000E+010.0000000000E+00+
*       6.8157894737E+00               0
GRID*               1123               0-5.100000000E+010.0000000000E+00+
*       4.8684210526E+00               0
GRID*               1124               0-5.100000000E+010.0000000000E+00+
*       2.9210526316E+00               0
GRID*               1125               0-5.100000000E+010.0000000000E+00+
*       9.7368421053E-01               0
GRID*               1126               0-5.100000000E+010.0000000000E+00+
*       -9.736842105E-01               0
GRID*               1127               0-5.100000000E+010.0000000000E+00+
*       -2.921052632E+00               0
GRID*               1128               0-5.100000000E+010.0000000000E+00+
*       -4.868421053E+00               0
GRID*               1129               0-5.100000000E+010.0000000000E+00+
*       -6.815789474E+00               0
GRID*               1130               0-5.100000000E+010.0000000000E+00+
*       -8.763157895E+00               0
GRID*               1131               0-5.100000000E+010.0000000000E+00+
*       -1.071052632E+01               0
GRID*               1132               0-5.100000000E+010.0000000000E+00+
*       -1.265789474E+01               0
GRID*               1133               0-5.100000000E+010.0000000000E+00+
*       -1.460526316E+01               0
GRID*               1134               0-5.100000000E+010.0000000000E+00+
*       -1.655263158E+01               0
GRID*               1135               0-5.300000000E+010.0000000000E+00+
*       1.6552631579E+01               0
GRID*               1136               0-5.300000000E+010.0000000000E+00+
*       1.4605263158E+01               0
GRID*               1137               0-5.300000000E+010.0000000000E+00+
*       1.2657894737E+01               0
GRID*               1138               0-5.300000000E+010.0000000000E+00+
*       1.0710526316E+01               0
GRID*               1139               0-5.300000000E+010.0000000000E+00+
*       8.7631578947E+00               0
GRID*               1140               0-5.300000000E+010.0000000000E+00+
*       6.8157894737E+00               0
GRID*               1141               0-5.300000000E+010.0000000000E+00+
*       4.8684210526E+00               0
GRID*               1142               0-5.300000000E+010.0000000000E+00+
*       2.9210526316E+00               0
GRID*               1143               0-5.300000000E+010.0000000000E+00+
*       9.7368421053E-01               0
GRID*               1144               0-5.300000000E+010.0000000000E+00+
*       -9.736842105E-01               0
GRID*               1145               0-5.300000000E+010.0000000000E+00+
*       -2.921052632E+00               0
GRID*               1146               0-5.300000000E+010.0000000000E+00+
*       -4.868421053E+00               0
GRID*               1147               0-5.300000000E+010.0000000000E+00+
*       -6.815789474E+00               0
GRID*               1148               0-5.300000000E+010.0000000000E+00+
*       -8.763157895E+00               0
GRID*               1149               0-5.300000000E+010.0000000000E+00+
*       -1.071052632E+01               0
GRID*               1150               0-5.300000000E+010.0000000000E+00+
*       -1.265789474E+01               0
GRID*               1151               0-5.300000000E+010.0000000000E+00+
*       -1.460526316E+01               0
GRID*               1152               0-5.300000000E+010.0000000000E+00+
*       -1.655263158E+01               0
GRID*               1153               0-5.500000000E+010.0000000000E+00+
*       1.6552631579E+01               0
GRID*               1154               0-5.500000000E+010.0000000000E+00+
*       1.4605263158E+01               0
GRID*               1155               0-5.500000000E+010.0000000000E+00+
*       1.2657894737E+01               0
GRID*               1156               0-5.500000000E+010.0000000000E+00+
*       1.0710526316E+01               0
GRID*               1157               0-5.500000000E+010.0000000000E+00+
*       8.7631578947E+00               0
GRID*               1158               0-5.500000000E+010.0000000000E+00+
*       6.8157894737E+00               0
GRID*               1159               0-5.500000000E+010.0000000000E+00+
*       4.8684210526E+00               0
GRID*               1160               0-5.500000000E+010.0000000000E+00+
*       2.9210526316E+00               0
GRID*               1161               0-5.500000000E+010.0000000000E+00+
*       9.7368421053E-01               0
GRID*               1162               0-5.500000000E+010.0000000000E+00+
*       -9.736842105E-01               0
GRID*               1163               0-5.500000000E+010.0000000000E+00+
*       -2.921052632E+00               0
GRID*               1164               0-5.500000000E+010.0000000000E+00+
*       -4.868421053E+00               0
GRID*               1165               0-5.500000000E+010.0000000000E+00+
*       -6.815789474E+00               0
GRID*               1166               0-5.500000000E+010.0000000000E+00+
*       -8.763157895E+00               0
GRID*               1167               0-5.500000000E+010.0000000000E+00+
*       -1.071052632E+01               0
GRID*               1168               0-5.500000000E+010.0000000000E+00+
*       -1.265789474E+01               0
GRID*               1169               0-5.500000000E+010.0000000000E+00+
*       -1.460526316E+01               0
GRID*               1170               0-5.500000000E+010.0000000000E+00+
*       -1.655263158E+01               0
GRID*               1171               0-5.700000000E+010.0000000000E+00+
*       1.6552631579E+01               0
GRID*               1172               0-5.700000000E+010.0000000000E+00+
*       1.4605263158E+01               0
GRID*               1173               0-5.700000000E+010.0000000000E+00+
*       1.2657894737E+01               0
GRID*               1174               0-5.700000000E+010.0000000000E+00+
*       1.0710526316E+01               0
GRID*               1175               0-5.700000000E+010.0000000000E+00+
*       8.7631578947E+00               0
GRID*               1176               0-5.700000000E+010.0000000000E+00+
*       6.8157894737E+00               0
GRID*               1177               0-5.700000000E+010.0000000000E+00+
*       4.8684210526E+00               0
GRID*               1178               0-5.700000000E+010.0000000000E+00+
*       2.9210526316E+00               0
GRID*               1179               0-5.700000000E+010.0000000000E+00+
*       9.7368421053E-01               0
GRID*               1180               0-5.700000000E+010.0000000000E+00+
*       -9.736842105E-01               0
GRID*               1181               0-5.700000000E+010.0000000000E+00+
*       -2.921052632E+00               0
GRID*               1182               0-5.700000000E+010.0000000000E+00+
*       -4.868421053E+00               0
GRID*               1183               0-5.700000000E+010.0000000000E+00+
*       -6.815789474E+00               0
GRID*               1184               0-5.700000000E+010.0000000000E+00+
*       -8.763157895E+00               0
GRID*               1185               0-5.700000000E+010.0000000000E+00+
*       -1.071052632E+01               0
GRID*               1186               0-5.700000000E+010.0000000000E+00+
*       -1.265789474E+01               0
GRID*               1187               0-5.700000000E+010.0000000000E+00+
*       -1.460526316E+01               0
GRID*               1188               0-5.700000000E+010.0000000000E+00+
*       -1.655263158E+01               0
GRID*               1189               0-5.900000000E+010.0000000000E+00+
*       1.6552631579E+01               0
GRID*               1190               0-5.900000000E+010.0000000000E+00+
*       1.4605263158E+01               0
GRID*               1191               0-5.900000000E+010.0000000000E+00+
*       1.2657894737E+01               0
GRID*               1192               0-5.900000000E+010.0000000000E+00+
*       1.0710526316E+01               0
GRID*               1193               0-5.900000000E+010.0000000000E+00+
*       8.7631578947E+00               0
GRID*               1194               0-5.900000000E+010.0000000000E+00+
*       6.8157894737E+00               0
GRID*               1195               0-5.900000000E+010.0000000000E+00+
*       4.8684210526E+00               0
GRID*               1196               0-5.900000000E+010.0000000000E+00+
*       2.9210526316E+00               0
GRID*               1197               0-5.900000000E+010.0000000000E+00+
*       9.7368421053E-01               0
GRID*               1198               0-5.900000000E+010.0000000000E+00+
*       -9.736842105E-01               0
GRID*               1199               0-5.900000000E+010.0000000000E+00+
*       -2.921052632E+00               0
GRID*               1200               0-5.900000000E+010.0000000000E+00+
*       -4.868421053E+00               0
GRID*               1201               0-5.900000000E+010.0000000000E+00+
*       -6.815789474E+00               0
GRID*               1202               0-5.900000000E+010.0000000000E+00+
*       -8.763157895E+00               0
GRID*               1203               0-5.900000000E+010.0000000000E+00+
*       -1.071052632E+01               0
GRID*               1204               0-5.900000000E+010.0000000000E+00+
*       -1.265789474E+01               0
GRID*               1205               0-5.900000000E+010.0000000000E+00+
*       -1.460526316E+01               0
GRID*               1206               0-5.900000000E+010.0000000000E+00+
*       -1.655263158E+01               0
GRID*               1207               0-6.100000000E+010.0000000000E+00+
*       1.6552631579E+01               0
GRID*               1208               0-6.100000000E+010.0000000000E+00+
*       1.4605263158E+01               0
GRID*               1209               0-6.100000000E+010.0000000000E+00+
*       1.2657894737E+01               0
GRID*               1210               0-6.100000000E+010.0000000000E+00+
*       1.0710526316E+01               0
GRID*               1211               0-6.100000000E+010.0000000000E+00+
*       8.7631578947E+00               0
GRID*               1212               0-6.100000000E+010.0000000000E+00+
*       6.8157894737E+00               0
GRID*               1213               0-6.100000000E+010.0000000000E+00+
*       4.8684210526E+00               0
GRID*               1214               0-6.100000000E+010.0000000000E+00+
*       2.9210526316E+00               0
GRID*               1215               0-6.100000000E+010.0000000000E+00+
*       9.7368421053E-01               0
GRID*               1216               0-6.100000000E+010.0000000000E+00+
*       -9.736842105E-01               0
GRID*               1217               0-6.100000000E+010.0000000000E+00+
*       -2.921052632E+00               0
GRID*               1218               0-6.100000000E+010.0000000000E+00+
*       -4.868421053E+00               0
GRID*               1219               0-6.100000000E+010.0000000000E+00+
*       -6.815789474E+00               0
GRID*               1220               0-6.100000000E+010.0000000000E+00+
*       -8.763157895E+00               0
GRID*               1221               0-6.100000000E+010.0000000000E+00+
*       -1.071052632E+01               0
GRID*               1222               0-6.100000000E+010.0000000000E+00+
*       -1.265789474E+01               0
GRID*               1223               0-6.100000000E+010.0000000000E+00+
*       -1.460526316E+01               0
GRID*               1224               0-6.100000000E+010.0000000000E+00+
*       -1.655263158E+01               0
GRID*               1225               0-6.300000000E+010.0000000000E+00+
*       1.6552631579E+01               0
GRID*               1226               0-6.300000000E+010.0000000000E+00+
*       1.4605263158E+01               0
GRID*               1227               0-6.300000000E+010.0000000000E+00+
*       1.2657894737E+01               0
GRID*               1228               0-6.300000000E+010.0000000000E+00+
*       1.0710526316E+01               0
GRID*               1229               0-6.300000000E+010.0000000000E+00+
*       8.7631578947E+00               0
GRID*               1230               0-6.300000000E+010.0000000000E+00+
*       6.8157894737E+00               0
GRID*               1231               0-6.300000000E+010.0000000000E+00+
*       4.8684210526E+00               0
GRID*               1232               0-6.300000000E+010.0000000000E+00+
*       2.9210526316E+00               0
GRID*               1233               0-6.300000000E+010.0000000000E+00+
*       9.7368421053E-01               0
GRID*               1234               0-6.300000000E+010.0000000000E+00+
*       -9.736842105E-01               0
GRID*               1235               0-6.300000000E+010.0000000000E+00+
*       -2.921052632E+00               0
GRID*               1236               0-6.300000000E+010.0000000000E+00+
*       -4.868421053E+00               0
GRID*               1237               0-6.300000000E+010.0000000000E+00+
*       -6.815789474E+00               0
GRID*               1238               0-6.300000000E+010.0000000000E+00+
*       -8.763157895E+00               0
GRID*               1239               0-6.300000000E+010.0000000000E+00+
*       -1.071052632E+01               0
GRID*               1240               0-6.300000000E+010.0000000000E+00+
*       -1.265789474E+01               0
GRID*               1241               0-6.300000000E+010.0000000000E+00+
*       -1.460526316E+01               0
GRID*               1242               0-6.300000000E+010.0000000000E+00+
*       -1.655263158E+01               0
GRID*               1243               0-6.500000000E+010.0000000000E+00+
*       1.6552631579E+01               0
GRID*               1244               0-6.500000000E+010.0000000000E+00+
*       1.4605263158E+01               0
GRID*               1245               0-6.500000000E+010.0000000000E+00+
*       1.2657894737E+01               0
GRID*               1246               0-6.500000000E+010.0000000000E+00+
*       1.0710526316E+01               0
GRID*               1247               0-6.500000000E+010.0000000000E+00+
*       8.7631578947E+00               0
GRID*               1248               0-6.500000000E+010.0000000000E+00+
*       6.8157894737E+00               0
GRID*               1249               0-6.500000000E+010.0000000000E+00+
*       4.8684210526E+00               0
GRID*               1250               0-6.500000000E+010.0000000000E+00+
*       2.9210526316E+00               0
GRID*               1251               0-6.500000000E+010.0000000000E+00+
*       9.7368421053E-01               0
GRID*               1252               0-6.500000000E+010.0000000000E+00+
*       -9.736842105E-01               0
GRID*               1253               0-6.500000000E+010.0000000000E+00+
*       -2.921052632E+00               0
GRID*               1254               0-6.500000000E+010.0000000000E+00+
*       -4.868421053E+00               0
GRID*               1255               0-6.500000000E+010.0000000000E+00+
*       -6.815789474E+00               0
GRID*               1256               0-6.500000000E+010.0000000000E+00+
*       -8.763157895E+00               0
GRID*               1257               0-6.500000000E+010.0000000000E+00+
*       -1.071052632E+01               0
GRID*               1258               0-6.500000000E+010.0000000000E+00+
*       -1.265789474E+01               0
GRID*               1259               0-6.500000000E+010.0000000000E+00+
*       -1.460526316E+01               0
GRID*               1260               0-6.500000000E+010.0000000000E+00+
*       -1.655263158E+01               0
GRID*               1261               0-6.700000000E+010.0000000000E+00+
*       1.6552631579E+01               0
GRID*               1262               0-6.700000000E+010.0000000000E+00+
*       1.4605263158E+01               0
GRID*               1263               0-6.700000000E+010.0000000000E+00+
*       1.2657894737E+01               0
GRID*               1264               0-6.700000000E+010.0000000000E+00+
*       1.0710526316E+01               0
GRID*               1265               0-6.700000000E+010.0000000000E+00+
*       8.7631578947E+00               0
GRID*               1266               0-6.700000000E+010.0000000000E+00+
*       6.8157894737E+00               0
GRID*               1267               0-6.700000000E+010.0000000000E+00+
*       4.8684210526E+00               0
GRID*               1268               0-6.700000000E+010.0000000000E+00+
*       2.9210526316E+00               0
GRID*               1269               0-6.700000000E+010.0000000000E+00+
*       9.7368421053E-01               0
GRID*               1270               0-6.700000000E+010.0000000000E+00+
*       -9.736842105E-01               0
GRID*               1271               0-6.700000000E+010.0000000000E+00+
*       -2.921052632E+00               0
GRID*               1272               0-6.700000000E+010.0000000000E+00+
*       -4.868421053E+00               0
GRID*               1273               0-6.700000000E+010.0000000000E+00+
*       -6.815789474E+00               0
GRID*               1274               0-6.700000000E+010.0000000000E+00+
*       -8.763157895E+00               0
GRID*               1275               0-6.700000000E+010.0000000000E+00+
*       -1.071052632E+01               0
GRID*               1276               0-6.700000000E+010.0000000000E+00+
*       -1.265789474E+01               0
GRID*               1277               0-6.700000000E+010.0000000000E+00+
*       -1.460526316E+01               0
GRID*               1278               0-6.700000000E+010.0000000000E+00+
*       -1.655263158E+01               0
GRID*               1279               0-6.900000000E+010.0000000000E+00+
*       1.6552631579E+01               0
GRID*               1280               0-6.900000000E+010.0000000000E+00+
*       1.4605263158E+01               0
GRID*               1281               0-6.900000000E+010.0000000000E+00+
*       1.2657894737E+01               0
GRID*               1282               0-6.900000000E+010.0000000000E+00+
*       1.0710526316E+01               0
GRID*               1283               0-6.900000000E+010.0000000000E+00+
*       8.7631578947E+00               0
GRID*               1284               0-6.900000000E+010.0000000000E+00+
*       6.8157894737E+00               0
GRID*               1285               0-6.900000000E+010.0000000000E+00+
*       4.8684210526E+00               0
GRID*               1286               0-6.900000000E+010.0000000000E+00+
*       2.9210526316E+00               0
GRID*               1287               0-6.900000000E+010.0000000000E+00+
*       9.7368421053E-01               0
GRID*               1288               0-6.900000000E+010.0000000000E+00+
*       -9.736842105E-01               0
GRID*               1289               0-6.900000000E+010.0000000000E+00+
*       -2.921052632E+00               0
GRID*               1290               0-6.900000000E+010.0000000000E+00+
*       -4.868421053E+00               0
GRID*               1291               0-6.900000000E+010.0000000000E+00+
*       -6.815789474E+00               0
GRID*               1292               0-6.900000000E+010.0000000000E+00+
*       -8.763157895E+00               0
GRID*               1293               0-6.900000000E+010.0000000000E+00+
*       -1.071052632E+01               0
GRID*               1294               0-6.900000000E+010.0000000000E+00+
*       -1.265789474E+01               0
GRID*               1295               0-6.900000000E+010.0000000000E+00+
*       -1.460526316E+01               0
GRID*               1296               0-6.900000000E+010.0000000000E+00+
*       -1.655263158E+01               0
GRID*               1297               0-7.100000000E+010.0000000000E+00+
*       1.6552631579E+01               0
GRID*               1298               0-7.100000000E+010.0000000000E+00+
*       1.4605263158E+01               0
GRID*               1299               0-7.100000000E+010.0000000000E+00+
*       1.2657894737E+01               0
GRID*               1300               0-7.100000000E+010.0000000000E+00+
*       1.0710526316E+01               0
GRID*               1301               0-7.100000000E+010.0000000000E+00+
*       8.7631578947E+00               0
GRID*               1302               0-7.100000000E+010.0000000000E+00+
*       6.8157894737E+00               0
GRID*               1303               0-7.100000000E+010.0000000000E+00+
*       4.8684210526E+00               0
GRID*               1304               0-7.100000000E+010.0000000000E+00+
*       2.9210526316E+00               0
GRID*               1305               0-7.100000000E+010.0000000000E+00+
*       9.7368421053E-01               0
GRID*               1306               0-7.100000000E+010.0000000000E+00+
*       -9.736842105E-01               0
GRID*               1307               0-7.100000000E+010.0000000000E+00+
*       -2.921052632E+00               0
GRID*               1308               0-7.100000000E+010.0000000000E+00+
*       -4.868421053E+00               0
GRID*               1309               0-7.100000000E+010.0000000000E+00+
*       -6.815789474E+00               0
GRID*               1310               0-7.100000000E+010.0000000000E+00+
*       -8.763157895E+00               0
GRID*               1311               0-7.100000000E+010.0000000000E+00+
*       -1.071052632E+01               0
GRID*               1312               0-7.100000000E+010.0000000000E+00+
*       -1.265789474E+01               0
GRID*               1313               0-7.100000000E+010.0000000000E+00+
*       -1.460526316E+01               0
GRID*               1314               0-7.100000000E+010.0000000000E+00+
*       -1.655263158E+01               0
GRID*               1315               0-7.300000000E+010.0000000000E+00+
*       1.6552631579E+01               0
GRID*               1316               0-7.300000000E+010.0000000000E+00+
*       1.4605263158E+01               0
GRID*               1317               0-7.300000000E+010.0000000000E+00+
*       1.2657894737E+01               0
GRID*               1318               0-7.300000000E+010.0000000000E+00+
*       1.0710526316E+01               0
GRID*               1319               0-7.300000000E+010.0000000000E+00+
*       8.7631578947E+00               0
GRID*               1320               0-7.300000000E+010.0000000000E+00+
*       6.8157894737E+00               0
GRID*               1321               0-7.300000000E+010.0000000000E+00+
*       4.8684210526E+00               0
GRID*               1322               0-7.300000000E+010.0000000000E+00+
*       2.9210526316E+00               0
GRID*               1323               0-7.300000000E+010.0000000000E+00+
*       9.7368421053E-01               0
GRID*               1324               0-7.300000000E+010.0000000000E+00+
*       -9.736842105E-01               0
GRID*               1325               0-7.300000000E+010.0000000000E+00+
*       -2.921052632E+00               0
GRID*               1326               0-7.300000000E+010.0000000000E+00+
*       -4.868421053E+00               0
GRID*               1327               0-7.300000000E+010.0000000000E+00+
*       -6.815789474E+00               0
GRID*               1328               0-7.300000000E+010.0000000000E+00+
*       -8.763157895E+00               0
GRID*               1329               0-7.300000000E+010.0000000000E+00+
*       -1.071052632E+01               0
GRID*               1330               0-7.300000000E+010.0000000000E+00+
*       -1.265789474E+01               0
GRID*               1331               0-7.300000000E+010.0000000000E+00+
*       -1.460526316E+01               0
GRID*               1332               0-7.300000000E+010.0000000000E+00+
*       -1.655263158E+01               0
GRID*               1333               07.2000000000E+010.0000000000E+00+
*       1.6552631579E+01               0
GRID*               1334               07.1000000000E+010.0000000000E+00+
*       1.5578947368E+01               0
GRID*               1335               07.2000000000E+010.0000000000E+00+
*       1.4605263158E+01               0
GRID*               1336               07.3000000000E+010.0000000000E+00+
*       1.5578947368E+01               0
GRID*               1337               07.1000000000E+010.0000000000E+00+
*       1.3631578947E+01               0
GRID*               1338               07.2000000000E+010.0000000000E+00+
*       1.2657894737E+01               0
GRID*               1339               07.3000000000E+010.0000000000E+00+
*       1.3631578947E+01               0
GRID*               1340               07.1000000000E+010.0000000000E+00+
*       1.1684210526E+01               0
GRID*               1341               07.2000000000E+010.0000000000E+00+
*       1.0710526316E+01               0
GRID*               1342               07.3000000000E+010.0000000000E+00+
*       1.1684210526E+01               0
GRID*               1343               07.1000000000E+010.0000000000E+00+
*       9.7368421053E+00               0
GRID*               1344               07.2000000000E+010.0000000000E+00+
*       8.7631578947E+00               0
GRID*               1345               07.3000000000E+010.0000000000E+00+
*       9.7368421053E+00               0
GRID*               1346               07.1000000000E+010.0000000000E+00+
*       7.7894736842E+00               0
GRID*               1347               07.2000000000E+010.0000000000E+00+
*       6.8157894737E+00               0
GRID*               1348               07.3000000000E+010.0000000000E+00+
*       7.7894736842E+00               0
GRID*               1349               07.1000000000E+010.0000000000E+00+
*       5.8421052632E+00               0
GRID*               1350               07.2000000000E+010.0000000000E+00+
*       4.8684210526E+00               0
GRID*               1351               07.3000000000E+010.0000000000E+00+
*       5.8421052632E+00               0
GRID*               1352               07.1000000000E+010.0000000000E+00+
*       3.8947368421E+00               0
GRID*               1353               07.2000000000E+010.0000000000E+00+
*       2.9210526316E+00               0
GRID*               1354               07.3000000000E+010.0000000000E+00+
*       3.8947368421E+00               0
GRID*               1355               07.1000000000E+010.0000000000E+00+
*       1.9473684211E+00               0
GRID*               1356               07.2000000000E+010.0000000000E+00+
*       9.7368421053E-01               0
GRID*               1357               07.3000000000E+010.0000000000E+00+
*       1.9473684211E+00               0
GRID*               1358               07.1000000000E+010.0000000000E+00+
*       1.2906342661E-15               0
GRID*               1359               07.2000000000E+010.0000000000E+00+
*       -9.736842105E-01               0
GRID*               1360               07.3000000000E+010.0000000000E+00+
*       3.4000580129E-15               0
GRID*               1361               07.1000000000E+010.0000000000E+00+
*       -1.947368421E+00               0
GRID*               1362               07.2000000000E+010.0000000000E+00+
*       -2.921052632E+00               0
GRID*               1363               07.3000000000E+010.0000000000E+00+
*       -1.947368421E+00               0
GRID*               1364               07.1000000000E+010.0000000000E+00+
*       -3.894736842E+00               0
GRID*               1365               07.2000000000E+010.0000000000E+00+
*       -4.868421053E+00               0
GRID*               1366               07.3000000000E+010.0000000000E+00+
*       -3.894736842E+00               0
GRID*               1367               07.1000000000E+010.0000000000E+00+
*       -5.842105263E+00               0
GRID*               1368               07.2000000000E+010.0000000000E+00+
*       -6.815789474E+00               0
GRID*               1369               07.3000000000E+010.0000000000E+00+
*       -5.842105263E+00               0
GRID*               1370               07.1000000000E+010.0000000000E+00+
*       -7.789473684E+00               0
GRID*               1371               07.2000000000E+010.0000000000E+00+
*       -8.763157895E+00               0
GRID*               1372               07.3000000000E+010.0000000000E+00+
*       -7.789473684E+00               0
GRID*               1373               07.1000000000E+010.0000000000E+00+
*       -9.736842105E+00               0
GRID*               1374               07.2000000000E+010.0000000000E+00+
*       -1.071052632E+01               0
GRID*               1375               07.3000000000E+010.0000000000E+00+
*       -9.736842105E+00               0
GRID*               1376               07.1000000000E+010.0000000000E+00+
*       -1.168421053E+01               0
GRID*               1377               07.2000000000E+010.0000000000E+00+
*       -1.265789474E+01               0
GRID*               1378               07.3000000000E+010.0000000000E+00+
*       -1.168421053E+01               0
GRID*               1379               07.1000000000E+010.0000000000E+00+
*       -1.363157895E+01               0
GRID*               1380               07.2000000000E+010.0000000000E+00+
*       -1.460526316E+01               0
GRID*               1381               07.3000000000E+010.0000000000E+00+
*       -1.363157895E+01               0
GRID*               1382               07.1000000000E+010.0000000000E+00+
*       -1.557894737E+01               0
GRID*               1383               07.2000000000E+010.0000000000E+00+
*       -1.655263158E+01               0
GRID*               1384               07.3000000000E+010.0000000000E+00+
*       -1.557894737E+01               0
GRID*               1385               07.0000000000E+010.0000000000E+00+
*       1.6552631579E+01               0
GRID*               1386               06.9000000000E+010.0000000000E+00+
*       1.5578947368E+01               0
GRID*               1387               07.0000000000E+010.0000000000E+00+
*       1.4605263158E+01               0
GRID*               1388               06.9000000000E+010.0000000000E+00+
*       1.3631578947E+01               0
GRID*               1389               07.0000000000E+010.0000000000E+00+
*       1.2657894737E+01               0
GRID*               1390               06.9000000000E+010.0000000000E+00+
*       1.1684210526E+01               0
GRID*               1391               07.0000000000E+010.0000000000E+00+
*       1.0710526316E+01               0
GRID*               1392               06.9000000000E+010.0000000000E+00+
*       9.7368421053E+00               0
GRID*               1393               07.0000000000E+010.0000000000E+00+
*       8.7631578947E+00               0
GRID*               1394               06.9000000000E+010.0000000000E+00+
*       7.7894736842E+00               0
GRID*               1395               07.0000000000E+010.0000000000E+00+
*       6.8157894737E+00               0
GRID*               1396               06.9000000000E+010.0000000000E+00+
*       5.8421052632E+00               0
GRID*               1397               07.0000000000E+010.0000000000E+00+
*       4.8684210526E+00               0
GRID*               1398               06.9000000000E+010.0000000000E+00+
*       3.8947368421E+00               0
GRID*               1399               07.0000000000E+010.0000000000E+00+
*       2.9210526316E+00               0
GRID*               1400               06.9000000000E+010.0000000000E+00+
*       1.9473684211E+00               0
GRID*               1401               07.0000000000E+010.0000000000E+00+
*       9.7368421053E-01               0
GRID*               1402               06.9000000000E+010.0000000000E+00+
*       -3.358424649E-15               0
GRID*               1403               07.0000000000E+010.0000000000E+00+
*       -9.736842105E-01               0
GRID*               1404               06.9000000000E+010.0000000000E+00+
*       -1.947368421E+00               0
GRID*               1405               07.0000000000E+010.0000000000E+00+
*       -2.921052632E+00               0
GRID*               1406               06.9000000000E+010.0000000000E+00+
*       -3.894736842E+00               0
GRID*               1407               07.0000000000E+010.0000000000E+00+
*       -4.868421053E+00               0
GRID*               1408               06.9000000000E+010.0000000000E+00+
*       -5.842105263E+00               0
GRID*               1409               07.0000000000E+010.0000000000E+00+
*       -6.815789474E+00               0
GRID*               1410               06.9000000000E+010.0000000000E+00+
*       -7.789473684E+00               0
GRID*               1411               07.0000000000E+010.0000000000E+00+
*       -8.763157895E+00               0
GRID*               1412               06.9000000000E+010.0000000000E+00+
*       -9.736842105E+00               0
GRID*               1413               07.0000000000E+010.0000000000E+00+
*       -1.071052632E+01               0
GRID*               1414               06.9000000000E+010.0000000000E+00+
*       -1.168421053E+01               0
GRID*               1415               07.0000000000E+010.0000000000E+00+
*       -1.265789474E+01               0
GRID*               1416               06.9000000000E+010.0000000000E+00+
*       -1.363157895E+01               0
GRID*               1417               07.0000000000E+010.0000000000E+00+
*       -1.460526316E+01               0
GRID*               1418               06.9000000000E+010.0000000000E+00+
*       -1.557894737E+01               0
GRID*               1419               07.0000000000E+010.0000000000E+00+
*       -1.655263158E+01               0
GRID*               1420               06.8000000000E+010.0000000000E+00+
*       1.6552631579E+01               0
GRID*               1421               06.7000000000E+010.0000000000E+00+
*       1.5578947368E+01               0
GRID*               1422               06.8000000000E+010.0000000000E+00+
*       1.4605263158E+01               0
GRID*               1423               06.7000000000E+010.0000000000E+00+
*       1.3631578947E+01               0
GRID*               1424               06.8000000000E+010.0000000000E+00+
*       1.2657894737E+01               0
GRID*               1425               06.7000000000E+010.0000000000E+00+
*       1.1684210526E+01               0
GRID*               1426               06.8000000000E+010.0000000000E+00+
*       1.0710526316E+01               0
GRID*               1427               06.7000000000E+010.0000000000E+00+
*       9.7368421053E+00               0
GRID*               1428               06.8000000000E+010.0000000000E+00+
*       8.7631578947E+00               0
GRID*               1429               06.7000000000E+010.0000000000E+00+
*       7.7894736842E+00               0
GRID*               1430               06.8000000000E+010.0000000000E+00+
*       6.8157894737E+00               0
GRID*               1431               06.7000000000E+010.0000000000E+00+
*       5.8421052632E+00               0
GRID*               1432               06.8000000000E+010.0000000000E+00+
*       4.8684210526E+00               0
GRID*               1433               06.7000000000E+010.0000000000E+00+
*       3.8947368421E+00               0
GRID*               1434               06.8000000000E+010.0000000000E+00+
*       2.9210526316E+00               0
GRID*               1435               06.7000000000E+010.0000000000E+00+
*       1.9473684211E+00               0
GRID*               1436               06.8000000000E+010.0000000000E+00+
*       9.7368421053E-01               0
GRID*               1437               06.7000000000E+010.0000000000E+00+
*       1.9984014443E-15               0
GRID*               1438               06.8000000000E+010.0000000000E+00+
*       -9.736842105E-01               0
GRID*               1439               06.7000000000E+010.0000000000E+00+
*       -1.947368421E+00               0
GRID*               1440               06.8000000000E+010.0000000000E+00+
*       -2.921052632E+00               0
GRID*               1441               06.7000000000E+010.0000000000E+00+
*       -3.894736842E+00               0
GRID*               1442               06.8000000000E+010.0000000000E+00+
*       -4.868421053E+00               0
GRID*               1443               06.7000000000E+010.0000000000E+00+
*       -5.842105263E+00               0
GRID*               1444               06.8000000000E+010.0000000000E+00+
*       -6.815789474E+00               0
GRID*               1445               06.7000000000E+010.0000000000E+00+
*       -7.789473684E+00               0
GRID*               1446               06.8000000000E+010.0000000000E+00+
*       -8.763157895E+00               0
GRID*               1447               06.7000000000E+010.0000000000E+00+
*       -9.736842105E+00               0
GRID*               1448               06.8000000000E+010.0000000000E+00+
*       -1.071052632E+01               0
GRID*               1449               06.7000000000E+010.0000000000E+00+
*       -1.168421053E+01               0
GRID*               1450               06.8000000000E+010.0000000000E+00+
*       -1.265789474E+01               0
GRID*               1451               06.7000000000E+010.0000000000E+00+
*       -1.363157895E+01               0
GRID*               1452               06.8000000000E+010.0000000000E+00+
*       -1.460526316E+01               0
GRID*               1453               06.7000000000E+010.0000000000E+00+
*       -1.557894737E+01               0
GRID*               1454               06.8000000000E+010.0000000000E+00+
*       -1.655263158E+01               0
GRID*               1455               06.6000000000E+010.0000000000E+00+
*       1.6552631579E+01               0
GRID*               1456               06.5000000000E+010.0000000000E+00+
*       1.5578947368E+01               0
GRID*               1457               06.6000000000E+010.0000000000E+00+
*       1.4605263158E+01               0
GRID*               1458               06.5000000000E+010.0000000000E+00+
*       1.3631578947E+01               0
GRID*               1459               06.6000000000E+010.0000000000E+00+
*       1.2657894737E+01               0
GRID*               1460               06.5000000000E+010.0000000000E+00+
*       1.1684210526E+01               0
GRID*               1461               06.6000000000E+010.0000000000E+00+
*       1.0710526316E+01               0
GRID*               1462               06.5000000000E+010.0000000000E+00+
*       9.7368421053E+00               0
GRID*               1463               06.6000000000E+010.0000000000E+00+
*       8.7631578947E+00               0
GRID*               1464               06.5000000000E+010.0000000000E+00+
*       7.7894736842E+00               0
GRID*               1465               06.6000000000E+010.0000000000E+00+
*       6.8157894737E+00               0
GRID*               1466               06.5000000000E+010.0000000000E+00+
*       5.8421052632E+00               0
GRID*               1467               06.6000000000E+010.0000000000E+00+
*       4.8684210526E+00               0
GRID*               1468               06.5000000000E+010.0000000000E+00+
*       3.8947368421E+00               0
GRID*               1469               06.6000000000E+010.0000000000E+00+
*       2.9210526316E+00               0
GRID*               1470               06.5000000000E+010.0000000000E+00+
*       1.9473684211E+00               0
GRID*               1471               06.6000000000E+010.0000000000E+00+
*       9.7368421053E-01               0
GRID*               1472               06.5000000000E+010.0000000000E+00+
*       0.0000000000E+00               0
GRID*               1473               06.6000000000E+010.0000000000E+00+
*       -9.736842105E-01               0
GRID*               1474               06.5000000000E+010.0000000000E+00+
*       -1.947368421E+00               0
GRID*               1475               06.6000000000E+010.0000000000E+00+
*       -2.921052632E+00               0
GRID*               1476               06.5000000000E+010.0000000000E+00+
*       -3.894736842E+00               0
GRID*               1477               06.6000000000E+010.0000000000E+00+
*       -4.868421053E+00               0
GRID*               1478               06.5000000000E+010.0000000000E+00+
*       -5.842105263E+00               0
GRID*               1479               06.6000000000E+010.0000000000E+00+
*       -6.815789474E+00               0
GRID*               1480               06.5000000000E+010.0000000000E+00+
*       -7.789473684E+00               0
GRID*               1481               06.6000000000E+010.0000000000E+00+
*       -8.763157895E+00               0
GRID*               1482               06.5000000000E+010.0000000000E+00+
*       -9.736842105E+00               0
GRID*               1483               06.6000000000E+010.0000000000E+00+
*       -1.071052632E+01               0
GRID*               1484               06.5000000000E+010.0000000000E+00+
*       -1.168421053E+01               0
GRID*               1485               06.6000000000E+010.0000000000E+00+
*       -1.265789474E+01               0
GRID*               1486               06.5000000000E+010.0000000000E+00+
*       -1.363157895E+01               0
GRID*               1487               06.6000000000E+010.0000000000E+00+
*       -1.460526316E+01               0
GRID*               1488               06.5000000000E+010.0000000000E+00+
*       -1.557894737E+01               0
GRID*               1489               06.6000000000E+010.0000000000E+00+
*       -1.655263158E+01               0
GRID*               1490               06.4000000000E+010.0000000000E+00+
*       1.6552631579E+01               0
GRID*               1491               06.3000000000E+010.0000000000E+00+
*       1.5578947368E+01               0
GRID*               1492               06.4000000000E+010.0000000000E+00+
*       1.4605263158E+01               0
GRID*               1493               06.3000000000E+010.0000000000E+00+
*       1.3631578947E+01               0
GRID*               1494               06.4000000000E+010.0000000000E+00+
*       1.2657894737E+01               0
GRID*               1495               06.3000000000E+010.0000000000E+00+
*       1.1684210526E+01               0
GRID*               1496               06.4000000000E+010.0000000000E+00+
*       1.0710526316E+01               0
GRID*               1497               06.3000000000E+010.0000000000E+00+
*       9.7368421053E+00               0
GRID*               1498               06.4000000000E+010.0000000000E+00+
*       8.7631578947E+00               0
GRID*               1499               06.3000000000E+010.0000000000E+00+
*       7.7894736842E+00               0
GRID*               1500               06.4000000000E+010.0000000000E+00+
*       6.8157894737E+00               0
GRID*               1501               06.3000000000E+010.0000000000E+00+
*       5.8421052632E+00               0
GRID*               1502               06.4000000000E+010.0000000000E+00+
*       4.8684210526E+00               0
GRID*               1503               06.3000000000E+010.0000000000E+00+
*       3.8947368421E+00               0
GRID*               1504               06.4000000000E+010.0000000000E+00+
*       2.9210526316E+00               0
GRID*               1505               06.3000000000E+010.0000000000E+00+
*       1.9473684211E+00               0
GRID*               1506               06.4000000000E+010.0000000000E+00+
*       9.7368421053E-01               0
GRID*               1507               06.3000000000E+010.0000000000E+00+
*       -2.553512957E-15               0
GRID*               1508               06.4000000000E+010.0000000000E+00+
*       -9.736842105E-01               0
GRID*               1509               06.3000000000E+010.0000000000E+00+
*       -1.947368421E+00               0
GRID*               1510               06.4000000000E+010.0000000000E+00+
*       -2.921052632E+00               0
GRID*               1511               06.3000000000E+010.0000000000E+00+
*       -3.894736842E+00               0
GRID*               1512               06.4000000000E+010.0000000000E+00+
*       -4.868421053E+00               0
GRID*               1513               06.3000000000E+010.0000000000E+00+
*       -5.842105263E+00               0
GRID*               1514               06.4000000000E+010.0000000000E+00+
*       -6.815789474E+00               0
GRID*               1515               06.3000000000E+010.0000000000E+00+
*       -7.789473684E+00               0
GRID*               1516               06.4000000000E+010.0000000000E+00+
*       -8.763157895E+00               0
GRID*               1517               06.3000000000E+010.0000000000E+00+
*       -9.736842105E+00               0
GRID*               1518               06.4000000000E+010.0000000000E+00+
*       -1.071052632E+01               0
GRID*               1519               06.3000000000E+010.0000000000E+00+
*       -1.168421053E+01               0
GRID*               1520               06.4000000000E+010.0000000000E+00+
*       -1.265789474E+01               0
GRID*               1521               06.3000000000E+010.0000000000E+00+
*       -1.363157895E+01               0
GRID*               1522               06.4000000000E+010.0000000000E+00+
*       -1.460526316E+01               0
GRID*               1523               06.3000000000E+010.0000000000E+00+
*       -1.557894737E+01               0
GRID*               1524               06.4000000000E+010.0000000000E+00+
*       -1.655263158E+01               0
GRID*               1525               06.2000000000E+010.0000000000E+00+
*       1.6552631579E+01               0
GRID*               1526               06.1000000000E+010.0000000000E+00+
*       1.5578947368E+01               0
GRID*               1527               06.2000000000E+010.0000000000E+00+
*       1.4605263158E+01               0
GRID*               1528               06.1000000000E+010.0000000000E+00+
*       1.3631578947E+01               0
GRID*               1529               06.2000000000E+010.0000000000E+00+
*       1.2657894737E+01               0
GRID*               1530               06.1000000000E+010.0000000000E+00+
*       1.1684210526E+01               0
GRID*               1531               06.2000000000E+010.0000000000E+00+
*       1.0710526316E+01               0
GRID*               1532               06.1000000000E+010.0000000000E+00+
*       9.7368421053E+00               0
GRID*               1533               06.2000000000E+010.0000000000E+00+
*       8.7631578947E+00               0
GRID*               1534               06.1000000000E+010.0000000000E+00+
*       7.7894736842E+00               0
GRID*               1535               06.2000000000E+010.0000000000E+00+
*       6.8157894737E+00               0
GRID*               1536               06.1000000000E+010.0000000000E+00+
*       5.8421052632E+00               0
GRID*               1537               06.2000000000E+010.0000000000E+00+
*       4.8684210526E+00               0
GRID*               1538               06.1000000000E+010.0000000000E+00+
*       3.8947368421E+00               0
GRID*               1539               06.2000000000E+010.0000000000E+00+
*       2.9210526316E+00               0
GRID*               1540               06.1000000000E+010.0000000000E+00+
*       1.9473684211E+00               0
GRID*               1541               06.2000000000E+010.0000000000E+00+
*       9.7368421053E-01               0
GRID*               1542               06.1000000000E+010.0000000000E+00+
*       0.0000000000E+00               0
GRID*               1543               06.2000000000E+010.0000000000E+00+
*       -9.736842105E-01               0
GRID*               1544               06.1000000000E+010.0000000000E+00+
*       -1.947368421E+00               0
GRID*               1545               06.2000000000E+010.0000000000E+00+
*       -2.921052632E+00               0
GRID*               1546               06.1000000000E+010.0000000000E+00+
*       -3.894736842E+00               0
GRID*               1547               06.2000000000E+010.0000000000E+00+
*       -4.868421053E+00               0
GRID*               1548               06.1000000000E+010.0000000000E+00+
*       -5.842105263E+00               0
GRID*               1549               06.2000000000E+010.0000000000E+00+
*       -6.815789474E+00               0
GRID*               1550               06.1000000000E+010.0000000000E+00+
*       -7.789473684E+00               0
GRID*               1551               06.2000000000E+010.0000000000E+00+
*       -8.763157895E+00               0
GRID*               1552               06.1000000000E+010.0000000000E+00+
*       -9.736842105E+00               0
GRID*               1553               06.2000000000E+010.0000000000E+00+
*       -1.071052632E+01               0
GRID*               1554               06.1000000000E+010.0000000000E+00+
*       -1.168421053E+01               0
GRID*               1555               06.2000000000E+010.0000000000E+00+
*       -1.265789474E+01               0
GRID*               1556               06.1000000000E+010.0000000000E+00+
*       -1.363157895E+01               0
GRID*               1557               06.2000000000E+010.0000000000E+00+
*       -1.460526316E+01               0
GRID*               1558               06.1000000000E+010.0000000000E+00+
*       -1.557894737E+01               0
GRID*               1559               06.2000000000E+010.0000000000E+00+
*       -1.655263158E+01               0
GRID*               1560               06.0000000000E+010.0000000000E+00+
*       1.6552631579E+01               0
GRID*               1561               05.9000000000E+010.0000000000E+00+
*       1.5578947368E+01               0
GRID*               1562               06.0000000000E+010.0000000000E+00+
*       1.4605263158E+01               0
GRID*               1563               05.9000000000E+010.0000000000E+00+
*       1.3631578947E+01               0
GRID*               1564               06.0000000000E+010.0000000000E+00+
*       1.2657894737E+01               0
GRID*               1565               05.9000000000E+010.0000000000E+00+
*       1.1684210526E+01               0
GRID*               1566               06.0000000000E+010.0000000000E+00+
*       1.0710526316E+01               0
GRID*               1567               05.9000000000E+010.0000000000E+00+
*       9.7368421053E+00               0
GRID*               1568               06.0000000000E+010.0000000000E+00+
*       8.7631578947E+00               0
GRID*               1569               05.9000000000E+010.0000000000E+00+
*       7.7894736842E+00               0
GRID*               1570               06.0000000000E+010.0000000000E+00+
*       6.8157894737E+00               0
GRID*               1571               05.9000000000E+010.0000000000E+00+
*       5.8421052632E+00               0
GRID*               1572               06.0000000000E+010.0000000000E+00+
*       4.8684210526E+00               0
GRID*               1573               05.9000000000E+010.0000000000E+00+
*       3.8947368421E+00               0
GRID*               1574               06.0000000000E+010.0000000000E+00+
*       2.9210526316E+00               0
GRID*               1575               05.9000000000E+010.0000000000E+00+
*       1.9473684211E+00               0
GRID*               1576               06.0000000000E+010.0000000000E+00+
*       9.7368421053E-01               0
GRID*               1577               05.9000000000E+010.0000000000E+00+
*       6.2727600891E-15               0
GRID*               1578               06.0000000000E+010.0000000000E+00+
*       -9.736842105E-01               0
GRID*               1579               05.9000000000E+010.0000000000E+00+
*       -1.947368421E+00               0
GRID*               1580               06.0000000000E+010.0000000000E+00+
*       -2.921052632E+00               0
GRID*               1581               05.9000000000E+010.0000000000E+00+
*       -3.894736842E+00               0
GRID*               1582               06.0000000000E+010.0000000000E+00+
*       -4.868421053E+00               0
GRID*               1583               05.9000000000E+010.0000000000E+00+
*       -5.842105263E+00               0
GRID*               1584               06.0000000000E+010.0000000000E+00+
*       -6.815789474E+00               0
GRID*               1585               05.9000000000E+010.0000000000E+00+
*       -7.789473684E+00               0
GRID*               1586               06.0000000000E+010.0000000000E+00+
*       -8.763157895E+00               0
GRID*               1587               05.9000000000E+010.0000000000E+00+
*       -9.736842105E+00               0
GRID*               1588               06.0000000000E+010.0000000000E+00+
*       -1.071052632E+01               0
GRID*               1589               05.9000000000E+010.0000000000E+00+
*       -1.168421053E+01               0
GRID*               1590               06.0000000000E+010.0000000000E+00+
*       -1.265789474E+01               0
GRID*               1591               05.9000000000E+010.0000000000E+00+
*       -1.363157895E+01               0
GRID*               1592               06.0000000000E+010.0000000000E+00+
*       -1.460526316E+01               0
GRID*               1593               05.9000000000E+010.0000000000E+00+
*       -1.557894737E+01               0
GRID*               1594               06.0000000000E+010.0000000000E+00+
*       -1.655263158E+01               0
GRID*               1595               05.8000000000E+010.0000000000E+00+
*       1.6552631579E+01               0
GRID*               1596               05.7000000000E+010.0000000000E+00+
*       1.5578947368E+01               0
GRID*               1597               05.8000000000E+010.0000000000E+00+
*       1.4605263158E+01               0
GRID*               1598               05.7000000000E+010.0000000000E+00+
*       1.3631578947E+01               0
GRID*               1599               05.8000000000E+010.0000000000E+00+
*       1.2657894737E+01               0
GRID*               1600               05.7000000000E+010.0000000000E+00+
*       1.1684210526E+01               0
GRID*               1601               05.8000000000E+010.0000000000E+00+
*       1.0710526316E+01               0
GRID*               1602               05.7000000000E+010.0000000000E+00+
*       9.7368421053E+00               0
GRID*               1603               05.8000000000E+010.0000000000E+00+
*       8.7631578947E+00               0
GRID*               1604               05.7000000000E+010.0000000000E+00+
*       7.7894736842E+00               0
GRID*               1605               05.8000000000E+010.0000000000E+00+
*       6.8157894737E+00               0
GRID*               1606               05.7000000000E+010.0000000000E+00+
*       5.8421052632E+00               0
GRID*               1607               05.8000000000E+010.0000000000E+00+
*       4.8684210526E+00               0
GRID*               1608               05.7000000000E+010.0000000000E+00+
*       3.8947368421E+00               0
GRID*               1609               05.8000000000E+010.0000000000E+00+
*       2.9210526316E+00               0
GRID*               1610               05.7000000000E+010.0000000000E+00+
*       1.9473684211E+00               0
GRID*               1611               05.8000000000E+010.0000000000E+00+
*       9.7368421053E-01               0
GRID*               1612               05.7000000000E+010.0000000000E+00+
*       0.0000000000E+00               0
GRID*               1613               05.8000000000E+010.0000000000E+00+
*       -9.736842105E-01               0
GRID*               1614               05.7000000000E+010.0000000000E+00+
*       -1.947368421E+00               0
GRID*               1615               05.8000000000E+010.0000000000E+00+
*       -2.921052632E+00               0
GRID*               1616               05.7000000000E+010.0000000000E+00+
*       -3.894736842E+00               0
GRID*               1617               05.8000000000E+010.0000000000E+00+
*       -4.868421053E+00               0
GRID*               1618               05.7000000000E+010.0000000000E+00+
*       -5.842105263E+00               0
GRID*               1619               05.8000000000E+010.0000000000E+00+
*       -6.815789474E+00               0
GRID*               1620               05.7000000000E+010.0000000000E+00+
*       -7.789473684E+00               0
GRID*               1621               05.8000000000E+010.0000000000E+00+
*       -8.763157895E+00               0
GRID*               1622               05.7000000000E+010.0000000000E+00+
*       -9.736842105E+00               0
GRID*               1623               05.8000000000E+010.0000000000E+00+
*       -1.071052632E+01               0
GRID*               1624               05.7000000000E+010.0000000000E+00+
*       -1.168421053E+01               0
GRID*               1625               05.8000000000E+010.0000000000E+00+
*       -1.265789474E+01               0
GRID*               1626               05.7000000000E+010.0000000000E+00+
*       -1.363157895E+01               0
GRID*               1627               05.8000000000E+010.0000000000E+00+
*       -1.460526316E+01               0
GRID*               1628               05.7000000000E+010.0000000000E+00+
*       -1.557894737E+01               0
GRID*               1629               05.8000000000E+010.0000000000E+00+
*       -1.655263158E+01               0
GRID*               1630               05.6000000000E+010.0000000000E+00+
*       1.6552631579E+01               0
GRID*               1631               05.5000000000E+010.0000000000E+00+
*       1.5578947368E+01               0
GRID*               1632               05.6000000000E+010.0000000000E+00+
*       1.4605263158E+01               0
GRID*               1633               05.5000000000E+010.0000000000E+00+
*       1.3631578947E+01               0
GRID*               1634               05.6000000000E+010.0000000000E+00+
*       1.2657894737E+01               0
GRID*               1635               05.5000000000E+010.0000000000E+00+
*       1.1684210526E+01               0
GRID*               1636               05.6000000000E+010.0000000000E+00+
*       1.0710526316E+01               0
GRID*               1637               05.5000000000E+010.0000000000E+00+
*       9.7368421053E+00               0
GRID*               1638               05.6000000000E+010.0000000000E+00+
*       8.7631578947E+00               0
GRID*               1639               05.5000000000E+010.0000000000E+00+
*       7.7894736842E+00               0
GRID*               1640               05.6000000000E+010.0000000000E+00+
*       6.8157894737E+00               0
GRID*               1641               05.5000000000E+010.0000000000E+00+
*       5.8421052632E+00               0
GRID*               1642               05.6000000000E+010.0000000000E+00+
*       4.8684210526E+00               0
GRID*               1643               05.5000000000E+010.0000000000E+00+
*       3.8947368421E+00               0
GRID*               1644               05.6000000000E+010.0000000000E+00+
*       2.9210526316E+00               0
GRID*               1645               05.5000000000E+010.0000000000E+00+
*       1.9473684211E+00               0
GRID*               1646               05.6000000000E+010.0000000000E+00+
*       9.7368421053E-01               0
GRID*               1647               05.5000000000E+010.0000000000E+00+
*       0.0000000000E+00               0
GRID*               1648               05.6000000000E+010.0000000000E+00+
*       -9.736842105E-01               0
GRID*               1649               05.5000000000E+010.0000000000E+00+
*       -1.947368421E+00               0
GRID*               1650               05.6000000000E+010.0000000000E+00+
*       -2.921052632E+00               0
GRID*               1651               05.5000000000E+010.0000000000E+00+
*       -3.894736842E+00               0
GRID*               1652               05.6000000000E+010.0000000000E+00+
*       -4.868421053E+00               0
GRID*               1653               05.5000000000E+010.0000000000E+00+
*       -5.842105263E+00               0
GRID*               1654               05.6000000000E+010.0000000000E+00+
*       -6.815789474E+00               0
GRID*               1655               05.5000000000E+010.0000000000E+00+
*       -7.789473684E+00               0
GRID*               1656               05.6000000000E+010.0000000000E+00+
*       -8.763157895E+00               0
GRID*               1657               05.5000000000E+010.0000000000E+00+
*       -9.736842105E+00               0
GRID*               1658               05.6000000000E+010.0000000000E+00+
*       -1.071052632E+01               0
GRID*               1659               05.5000000000E+010.0000000000E+00+
*       -1.168421053E+01               0
GRID*               1660               05.6000000000E+010.0000000000E+00+
*       -1.265789474E+01               0
GRID*               1661               05.5000000000E+010.0000000000E+00+
*       -1.363157895E+01               0
GRID*               1662               05.6000000000E+010.0000000000E+00+
*       -1.460526316E+01               0
GRID*               1663               05.5000000000E+010.0000000000E+00+
*       -1.557894737E+01               0
GRID*               1664               05.6000000000E+010.0000000000E+00+
*       -1.655263158E+01               0
GRID*               1665               05.4000000000E+010.0000000000E+00+
*       1.6552631579E+01               0
GRID*               1666               05.3000000000E+010.0000000000E+00+
*       1.5578947368E+01               0
GRID*               1667               05.4000000000E+010.0000000000E+00+
*       1.4605263158E+01               0
GRID*               1668               05.3000000000E+010.0000000000E+00+
*       1.3631578947E+01               0
GRID*               1669               05.4000000000E+010.0000000000E+00+
*       1.2657894737E+01               0
GRID*               1670               05.3000000000E+010.0000000000E+00+
*       1.1684210526E+01               0
GRID*               1671               05.4000000000E+010.0000000000E+00+
*       1.0710526316E+01               0
GRID*               1672               05.3000000000E+010.0000000000E+00+
*       9.7368421053E+00               0
GRID*               1673               05.4000000000E+010.0000000000E+00+
*       8.7631578947E+00               0
GRID*               1674               05.3000000000E+010.0000000000E+00+
*       7.7894736842E+00               0
GRID*               1675               05.4000000000E+010.0000000000E+00+
*       6.8157894737E+00               0
GRID*               1676               05.3000000000E+010.0000000000E+00+
*       5.8421052632E+00               0
GRID*               1677               05.4000000000E+010.0000000000E+00+
*       4.8684210526E+00               0
GRID*               1678               05.3000000000E+010.0000000000E+00+
*       3.8947368421E+00               0
GRID*               1679               05.4000000000E+010.0000000000E+00+
*       2.9210526316E+00               0
GRID*               1680               05.3000000000E+010.0000000000E+00+
*       1.9473684211E+00               0
GRID*               1681               05.4000000000E+010.0000000000E+00+
*       9.7368421053E-01               0
GRID*               1682               05.3000000000E+010.0000000000E+00+
*       -1.776356839E-15               0
GRID*               1683               05.4000000000E+010.0000000000E+00+
*       -9.736842105E-01               0
GRID*               1684               05.3000000000E+010.0000000000E+00+
*       -1.947368421E+00               0
GRID*               1685               05.4000000000E+010.0000000000E+00+
*       -2.921052632E+00               0
GRID*               1686               05.3000000000E+010.0000000000E+00+
*       -3.894736842E+00               0
GRID*               1687               05.4000000000E+010.0000000000E+00+
*       -4.868421053E+00               0
GRID*               1688               05.3000000000E+010.0000000000E+00+
*       -5.842105263E+00               0
GRID*               1689               05.4000000000E+010.0000000000E+00+
*       -6.815789474E+00               0
GRID*               1690               05.3000000000E+010.0000000000E+00+
*       -7.789473684E+00               0
GRID*               1691               05.4000000000E+010.0000000000E+00+
*       -8.763157895E+00               0
GRID*               1692               05.3000000000E+010.0000000000E+00+
*       -9.736842105E+00               0
GRID*               1693               05.4000000000E+010.0000000000E+00+
*       -1.071052632E+01               0
GRID*               1694               05.3000000000E+010.0000000000E+00+
*       -1.168421053E+01               0
GRID*               1695               05.4000000000E+010.0000000000E+00+
*       -1.265789474E+01               0
GRID*               1696               05.3000000000E+010.0000000000E+00+
*       -1.363157895E+01               0
GRID*               1697               05.4000000000E+010.0000000000E+00+
*       -1.460526316E+01               0
GRID*               1698               05.3000000000E+010.0000000000E+00+
*       -1.557894737E+01               0
GRID*               1699               05.4000000000E+010.0000000000E+00+
*       -1.655263158E+01               0
GRID*               1700               05.2000000000E+010.0000000000E+00+
*       1.6552631579E+01               0
GRID*               1701               05.1000000000E+010.0000000000E+00+
*       1.5578947368E+01               0
GRID*               1702               05.2000000000E+010.0000000000E+00+
*       1.4605263158E+01               0
GRID*               1703               05.1000000000E+010.0000000000E+00+
*       1.3631578947E+01               0
GRID*               1704               05.2000000000E+010.0000000000E+00+
*       1.2657894737E+01               0
GRID*               1705               05.1000000000E+010.0000000000E+00+
*       1.1684210526E+01               0
GRID*               1706               05.2000000000E+010.0000000000E+00+
*       1.0710526316E+01               0
GRID*               1707               05.1000000000E+010.0000000000E+00+
*       9.7368421053E+00               0
GRID*               1708               05.2000000000E+010.0000000000E+00+
*       8.7631578947E+00               0
GRID*               1709               05.1000000000E+010.0000000000E+00+
*       7.7894736842E+00               0
GRID*               1710               05.2000000000E+010.0000000000E+00+
*       6.8157894737E+00               0
GRID*               1711               05.1000000000E+010.0000000000E+00+
*       5.8421052632E+00               0
GRID*               1712               05.2000000000E+010.0000000000E+00+
*       4.8684210526E+00               0
GRID*               1713               05.1000000000E+010.0000000000E+00+
*       3.8947368421E+00               0
GRID*               1714               05.2000000000E+010.0000000000E+00+
*       2.9210526316E+00               0
GRID*               1715               05.1000000000E+010.0000000000E+00+
*       1.9473684211E+00               0
GRID*               1716               05.2000000000E+010.0000000000E+00+
*       9.7368421053E-01               0
GRID*               1717               05.1000000000E+010.0000000000E+00+
*       1.1657341759E-15               0
GRID*               1718               05.2000000000E+010.0000000000E+00+
*       -9.736842105E-01               0
GRID*               1719               05.1000000000E+010.0000000000E+00+
*       -1.947368421E+00               0
GRID*               1720               05.2000000000E+010.0000000000E+00+
*       -2.921052632E+00               0
GRID*               1721               05.1000000000E+010.0000000000E+00+
*       -3.894736842E+00               0
GRID*               1722               05.2000000000E+010.0000000000E+00+
*       -4.868421053E+00               0
GRID*               1723               05.1000000000E+010.0000000000E+00+
*       -5.842105263E+00               0
GRID*               1724               05.2000000000E+010.0000000000E+00+
*       -6.815789474E+00               0
GRID*               1725               05.1000000000E+010.0000000000E+00+
*       -7.789473684E+00               0
GRID*               1726               05.2000000000E+010.0000000000E+00+
*       -8.763157895E+00               0
GRID*               1727               05.1000000000E+010.0000000000E+00+
*       -9.736842105E+00               0
GRID*               1728               05.2000000000E+010.0000000000E+00+
*       -1.071052632E+01               0
GRID*               1729               05.1000000000E+010.0000000000E+00+
*       -1.168421053E+01               0
GRID*               1730               05.2000000000E+010.0000000000E+00+
*       -1.265789474E+01               0
GRID*               1731               05.1000000000E+010.0000000000E+00+
*       -1.363157895E+01               0
GRID*               1732               05.2000000000E+010.0000000000E+00+
*       -1.460526316E+01               0
GRID*               1733               05.1000000000E+010.0000000000E+00+
*       -1.557894737E+01               0
GRID*               1734               05.2000000000E+010.0000000000E+00+
*       -1.655263158E+01               0
GRID*               1735               05.0000000000E+010.0000000000E+00+
*       1.6552631579E+01               0
GRID*               1736               04.9000000000E+010.0000000000E+00+
*       1.5578947368E+01               0
GRID*               1737               05.0000000000E+010.0000000000E+00+
*       1.4605263158E+01               0
GRID*               1738               04.9000000000E+010.0000000000E+00+
*       1.3631578947E+01               0
GRID*               1739               05.0000000000E+010.0000000000E+00+
*       1.2657894737E+01               0
GRID*               1740               04.9000000000E+010.0000000000E+00+
*       1.1684210526E+01               0
GRID*               1741               05.0000000000E+010.0000000000E+00+
*       1.0710526316E+01               0
GRID*               1742               04.9000000000E+010.0000000000E+00+
*       9.7368421053E+00               0
GRID*               1743               05.0000000000E+010.0000000000E+00+
*       8.7631578947E+00               0
GRID*               1744               04.9000000000E+010.0000000000E+00+
*       7.7894736842E+00               0
GRID*               1745               05.0000000000E+010.0000000000E+00+
*       6.8157894737E+00               0
GRID*               1746               04.9000000000E+010.0000000000E+00+
*       5.8421052632E+00               0
GRID*               1747               05.0000000000E+010.0000000000E+00+
*       4.8684210526E+00               0
GRID*               1748               04.9000000000E+010.0000000000E+00+
*       3.8947368421E+00               0
GRID*               1749               05.0000000000E+010.0000000000E+00+
*       2.9210526316E+00               0
GRID*               1750               04.9000000000E+010.0000000000E+00+
*       1.9473684211E+00               0
GRID*               1751               05.0000000000E+010.0000000000E+00+
*       9.7368421053E-01               0
GRID*               1752               04.9000000000E+010.0000000000E+00+
*       0.0000000000E+00               0
GRID*               1753               05.0000000000E+010.0000000000E+00+
*       -9.736842105E-01               0
GRID*               1754               04.9000000000E+010.0000000000E+00+
*       -1.947368421E+00               0
GRID*               1755               05.0000000000E+010.0000000000E+00+
*       -2.921052632E+00               0
GRID*               1756               04.9000000000E+010.0000000000E+00+
*       -3.894736842E+00               0
GRID*               1757               05.0000000000E+010.0000000000E+00+
*       -4.868421053E+00               0
GRID*               1758               04.9000000000E+010.0000000000E+00+
*       -5.842105263E+00               0
GRID*               1759               05.0000000000E+010.0000000000E+00+
*       -6.815789474E+00               0
GRID*               1760               04.9000000000E+010.0000000000E+00+
*       -7.789473684E+00               0
GRID*               1761               05.0000000000E+010.0000000000E+00+
*       -8.763157895E+00               0
GRID*               1762               04.9000000000E+010.0000000000E+00+
*       -9.736842105E+00               0
GRID*               1763               05.0000000000E+010.0000000000E+00+
*       -1.071052632E+01               0
GRID*               1764               04.9000000000E+010.0000000000E+00+
*       -1.168421053E+01               0
GRID*               1765               05.0000000000E+010.0000000000E+00+
*       -1.265789474E+01               0
GRID*               1766               04.9000000000E+010.0000000000E+00+
*       -1.363157895E+01               0
GRID*               1767               05.0000000000E+010.0000000000E+00+
*       -1.460526316E+01               0
GRID*               1768               04.9000000000E+010.0000000000E+00+
*       -1.557894737E+01               0
GRID*               1769               05.0000000000E+010.0000000000E+00+
*       -1.655263158E+01               0
GRID*               1770               04.8000000000E+010.0000000000E+00+
*       1.6552631579E+01               0
GRID*               1771               04.7000000000E+010.0000000000E+00+
*       1.5578947368E+01               0
GRID*               1772               04.8000000000E+010.0000000000E+00+
*       1.4605263158E+01               0
GRID*               1773               04.7000000000E+010.0000000000E+00+
*       1.3631578947E+01               0
GRID*               1774               04.8000000000E+010.0000000000E+00+
*       1.2657894737E+01               0
GRID*               1775               04.7000000000E+010.0000000000E+00+
*       1.1684210526E+01               0
GRID*               1776               04.8000000000E+010.0000000000E+00+
*       1.0710526316E+01               0
GRID*               1777               04.7000000000E+010.0000000000E+00+
*       9.7368421053E+00               0
GRID*               1778               04.8000000000E+010.0000000000E+00+
*       8.7631578947E+00               0
GRID*               1779               04.7000000000E+010.0000000000E+00+
*       7.7894736842E+00               0
GRID*               1780               04.8000000000E+010.0000000000E+00+
*       6.8157894737E+00               0
GRID*               1781               04.7000000000E+010.0000000000E+00+
*       5.8421052632E+00               0
GRID*               1782               04.8000000000E+010.0000000000E+00+
*       4.8684210526E+00               0
GRID*               1783               04.7000000000E+010.0000000000E+00+
*       3.8947368421E+00               0
GRID*               1784               04.8000000000E+010.0000000000E+00+
*       2.9210526316E+00               0
GRID*               1785               04.7000000000E+010.0000000000E+00+
*       1.9473684211E+00               0
GRID*               1786               04.8000000000E+010.0000000000E+00+
*       9.7368421053E-01               0
GRID*               1787               04.7000000000E+010.0000000000E+00+
*       0.0000000000E+00               0
GRID*               1788               04.8000000000E+010.0000000000E+00+
*       -9.736842105E-01               0
GRID*               1789               04.7000000000E+010.0000000000E+00+
*       -1.947368421E+00               0
GRID*               1790               04.8000000000E+010.0000000000E+00+
*       -2.921052632E+00               0
GRID*               1791               04.7000000000E+010.0000000000E+00+
*       -3.894736842E+00               0
GRID*               1792               04.8000000000E+010.0000000000E+00+
*       -4.868421053E+00               0
GRID*               1793               04.7000000000E+010.0000000000E+00+
*       -5.842105263E+00               0
GRID*               1794               04.8000000000E+010.0000000000E+00+
*       -6.815789474E+00               0
GRID*               1795               04.7000000000E+010.0000000000E+00+
*       -7.789473684E+00               0
GRID*               1796               04.8000000000E+010.0000000000E+00+
*       -8.763157895E+00               0
GRID*               1797               04.7000000000E+010.0000000000E+00+
*       -9.736842105E+00               0
GRID*               1798               04.8000000000E+010.0000000000E+00+
*       -1.071052632E+01               0
GRID*               1799               04.7000000000E+010.0000000000E+00+
*       -1.168421053E+01               0
GRID*               1800               04.8000000000E+010.0000000000E+00+
*       -1.265789474E+01               0
GRID*               1801               04.7000000000E+010.0000000000E+00+
*       -1.363157895E+01               0
GRID*               1802               04.8000000000E+010.0000000000E+00+
*       -1.460526316E+01               0
GRID*               1803               04.7000000000E+010.0000000000E+00+
*       -1.557894737E+01               0
GRID*               1804               04.8000000000E+010.0000000000E+00+
*       -1.655263158E+01               0
GRID*               1805               04.6000000000E+010.0000000000E+00+
*       1.6552631579E+01               0
GRID*               1806               04.5000000000E+010.0000000000E+00+
*       1.5578947368E+01               0
GRID*               1807               04.6000000000E+010.0000000000E+00+
*       1.4605263158E+01               0
GRID*               1808               04.5000000000E+010.0000000000E+00+
*       1.3631578947E+01               0
GRID*               1809               04.6000000000E+010.0000000000E+00+
*       1.2657894737E+01               0
GRID*               1810               04.5000000000E+010.0000000000E+00+
*       1.1684210526E+01               0
GRID*               1811               04.6000000000E+010.0000000000E+00+
*       1.0710526316E+01               0
GRID*               1812               04.5000000000E+010.0000000000E+00+
*       9.7368421053E+00               0
GRID*               1813               04.6000000000E+010.0000000000E+00+
*       8.7631578947E+00               0
GRID*               1814               04.5000000000E+010.0000000000E+00+
*       7.7894736842E+00               0
GRID*               1815               04.6000000000E+010.0000000000E+00+
*       6.8157894737E+00               0
GRID*               1816               04.5000000000E+010.0000000000E+00+
*       5.8421052632E+00               0
GRID*               1817               04.6000000000E+010.0000000000E+00+
*       4.8684210526E+00               0
GRID*               1818               04.5000000000E+010.0000000000E+00+
*       3.8947368421E+00               0
GRID*               1819               04.6000000000E+010.0000000000E+00+
*       2.9210526316E+00               0
GRID*               1820               04.5000000000E+010.0000000000E+00+
*       1.9473684211E+00               0
GRID*               1821               04.6000000000E+010.0000000000E+00+
*       9.7368421053E-01               0
GRID*               1822               04.5000000000E+010.0000000000E+00+
*       2.3869795029E-15               0
GRID*               1823               04.6000000000E+010.0000000000E+00+
*       -9.736842105E-01               0
GRID*               1824               04.5000000000E+010.0000000000E+00+
*       -1.947368421E+00               0
GRID*               1825               04.6000000000E+010.0000000000E+00+
*       -2.921052632E+00               0
GRID*               1826               04.5000000000E+010.0000000000E+00+
*       -3.894736842E+00               0
GRID*               1827               04.6000000000E+010.0000000000E+00+
*       -4.868421053E+00               0
GRID*               1828               04.5000000000E+010.0000000000E+00+
*       -5.842105263E+00               0
GRID*               1829               04.6000000000E+010.0000000000E+00+
*       -6.815789474E+00               0
GRID*               1830               04.5000000000E+010.0000000000E+00+
*       -7.789473684E+00               0
GRID*               1831               04.6000000000E+010.0000000000E+00+
*       -8.763157895E+00               0
GRID*               1832               04.5000000000E+010.0000000000E+00+
*       -9.736842105E+00               0
GRID*               1833               04.6000000000E+010.0000000000E+00+
*       -1.071052632E+01               0
GRID*               1834               04.5000000000E+010.0000000000E+00+
*       -1.168421053E+01               0
GRID*               1835               04.6000000000E+010.0000000000E+00+
*       -1.265789474E+01               0
GRID*               1836               04.5000000000E+010.0000000000E+00+
*       -1.363157895E+01               0
GRID*               1837               04.6000000000E+010.0000000000E+00+
*       -1.460526316E+01               0
GRID*               1838               04.5000000000E+010.0000000000E+00+
*       -1.557894737E+01               0
GRID*               1839               04.6000000000E+010.0000000000E+00+
*       -1.655263158E+01               0
GRID*               1840               04.4000000000E+010.0000000000E+00+
*       1.6552631579E+01               0
GRID*               1841               04.3000000000E+010.0000000000E+00+
*       1.5578947368E+01               0
GRID*               1842               04.4000000000E+010.0000000000E+00+
*       1.4605263158E+01               0
GRID*               1843               04.3000000000E+010.0000000000E+00+
*       1.3631578947E+01               0
GRID*               1844               04.4000000000E+010.0000000000E+00+
*       1.2657894737E+01               0
GRID*               1845               04.3000000000E+010.0000000000E+00+
*       1.1684210526E+01               0
GRID*               1846               04.4000000000E+010.0000000000E+00+
*       1.0710526316E+01               0
GRID*               1847               04.3000000000E+010.0000000000E+00+
*       9.7368421053E+00               0
GRID*               1848               04.4000000000E+010.0000000000E+00+
*       8.7631578947E+00               0
GRID*               1849               04.3000000000E+010.0000000000E+00+
*       7.7894736842E+00               0
GRID*               1850               04.4000000000E+010.0000000000E+00+
*       6.8157894737E+00               0
GRID*               1851               04.3000000000E+010.0000000000E+00+
*       5.8421052632E+00               0
GRID*               1852               04.4000000000E+010.0000000000E+00+
*       4.8684210526E+00               0
GRID*               1853               04.3000000000E+010.0000000000E+00+
*       3.8947368421E+00               0
GRID*               1854               04.4000000000E+010.0000000000E+00+
*       2.9210526316E+00               0
GRID*               1855               04.3000000000E+010.0000000000E+00+
*       1.9473684211E+00               0
GRID*               1856               04.4000000000E+010.0000000000E+00+
*       9.7368421053E-01               0
GRID*               1857               04.3000000000E+010.0000000000E+00+
*       -1.887379142E-15               0
GRID*               1858               04.4000000000E+010.0000000000E+00+
*       -9.736842105E-01               0
GRID*               1859               04.3000000000E+010.0000000000E+00+
*       -1.947368421E+00               0
GRID*               1860               04.4000000000E+010.0000000000E+00+
*       -2.921052632E+00               0
GRID*               1861               04.3000000000E+010.0000000000E+00+
*       -3.894736842E+00               0
GRID*               1862               04.4000000000E+010.0000000000E+00+
*       -4.868421053E+00               0
GRID*               1863               04.3000000000E+010.0000000000E+00+
*       -5.842105263E+00               0
GRID*               1864               04.4000000000E+010.0000000000E+00+
*       -6.815789474E+00               0
GRID*               1865               04.3000000000E+010.0000000000E+00+
*       -7.789473684E+00               0
GRID*               1866               04.4000000000E+010.0000000000E+00+
*       -8.763157895E+00               0
GRID*               1867               04.3000000000E+010.0000000000E+00+
*       -9.736842105E+00               0
GRID*               1868               04.4000000000E+010.0000000000E+00+
*       -1.071052632E+01               0
GRID*               1869               04.3000000000E+010.0000000000E+00+
*       -1.168421053E+01               0
GRID*               1870               04.4000000000E+010.0000000000E+00+
*       -1.265789474E+01               0
GRID*               1871               04.3000000000E+010.0000000000E+00+
*       -1.363157895E+01               0
GRID*               1872               04.4000000000E+010.0000000000E+00+
*       -1.460526316E+01               0
GRID*               1873               04.3000000000E+010.0000000000E+00+
*       -1.557894737E+01               0
GRID*               1874               04.4000000000E+010.0000000000E+00+
*       -1.655263158E+01               0
GRID*               1875               04.2000000000E+010.0000000000E+00+
*       1.6552631579E+01               0
GRID*               1876               04.1000000000E+010.0000000000E+00+
*       1.5578947368E+01               0
GRID*               1877               04.2000000000E+010.0000000000E+00+
*       1.4605263158E+01               0
GRID*               1878               04.1000000000E+010.0000000000E+00+
*       1.3631578947E+01               0
GRID*               1879               04.2000000000E+010.0000000000E+00+
*       1.2657894737E+01               0
GRID*               1880               04.1000000000E+010.0000000000E+00+
*       1.1684210526E+01               0
GRID*               1881               04.2000000000E+010.0000000000E+00+
*       1.0710526316E+01               0
GRID*               1882               04.1000000000E+010.0000000000E+00+
*       9.7368421053E+00               0
GRID*               1883               04.2000000000E+010.0000000000E+00+
*       8.7631578947E+00               0
GRID*               1884               04.1000000000E+010.0000000000E+00+
*       7.7894736842E+00               0
GRID*               1885               04.2000000000E+010.0000000000E+00+
*       6.8157894737E+00               0
GRID*               1886               04.1000000000E+010.0000000000E+00+
*       5.8421052632E+00               0
GRID*               1887               04.2000000000E+010.0000000000E+00+
*       4.8684210526E+00               0
GRID*               1888               04.1000000000E+010.0000000000E+00+
*       3.8947368421E+00               0
GRID*               1889               04.2000000000E+010.0000000000E+00+
*       2.9210526316E+00               0
GRID*               1890               04.1000000000E+010.0000000000E+00+
*       1.9473684211E+00               0
GRID*               1891               04.2000000000E+010.0000000000E+00+
*       9.7368421053E-01               0
GRID*               1892               04.1000000000E+010.0000000000E+00+
*       1.4988010832E-15               0
GRID*               1893               04.2000000000E+010.0000000000E+00+
*       -9.736842105E-01               0
GRID*               1894               04.1000000000E+010.0000000000E+00+
*       -1.947368421E+00               0
GRID*               1895               04.2000000000E+010.0000000000E+00+
*       -2.921052632E+00               0
GRID*               1896               04.1000000000E+010.0000000000E+00+
*       -3.894736842E+00               0
GRID*               1897               04.2000000000E+010.0000000000E+00+
*       -4.868421053E+00               0
GRID*               1898               04.1000000000E+010.0000000000E+00+
*       -5.842105263E+00               0
GRID*               1899               04.2000000000E+010.0000000000E+00+
*       -6.815789474E+00               0
GRID*               1900               04.1000000000E+010.0000000000E+00+
*       -7.789473684E+00               0
GRID*               1901               04.2000000000E+010.0000000000E+00+
*       -8.763157895E+00               0
GRID*               1902               04.1000000000E+010.0000000000E+00+
*       -9.736842105E+00               0
GRID*               1903               04.2000000000E+010.0000000000E+00+
*       -1.071052632E+01               0
GRID*               1904               04.1000000000E+010.0000000000E+00+
*       -1.168421053E+01               0
GRID*               1905               04.2000000000E+010.0000000000E+00+
*       -1.265789474E+01               0
GRID*               1906               04.1000000000E+010.0000000000E+00+
*       -1.363157895E+01               0
GRID*               1907               04.2000000000E+010.0000000000E+00+
*       -1.460526316E+01               0
GRID*               1908               04.1000000000E+010.0000000000E+00+
*       -1.557894737E+01               0
GRID*               1909               04.2000000000E+010.0000000000E+00+
*       -1.655263158E+01               0
GRID*               1910               04.0000000000E+010.0000000000E+00+
*       1.6552631579E+01               0
GRID*               1911               03.9000000000E+010.0000000000E+00+
*       1.5578947368E+01               0
GRID*               1912               04.0000000000E+010.0000000000E+00+
*       1.4605263158E+01               0
GRID*               1913               03.9000000000E+010.0000000000E+00+
*       1.3631578947E+01               0
GRID*               1914               04.0000000000E+010.0000000000E+00+
*       1.2657894737E+01               0
GRID*               1915               03.9000000000E+010.0000000000E+00+
*       1.1684210526E+01               0
GRID*               1916               04.0000000000E+010.0000000000E+00+
*       1.0710526316E+01               0
GRID*               1917               03.9000000000E+010.0000000000E+00+
*       9.7368421053E+00               0
GRID*               1918               04.0000000000E+010.0000000000E+00+
*       8.7631578947E+00               0
GRID*               1919               03.9000000000E+010.0000000000E+00+
*       7.7894736842E+00               0
GRID*               1920               04.0000000000E+010.0000000000E+00+
*       6.8157894737E+00               0
GRID*               1921               03.9000000000E+010.0000000000E+00+
*       5.8421052632E+00               0
GRID*               1922               04.0000000000E+010.0000000000E+00+
*       4.8684210526E+00               0
GRID*               1923               03.9000000000E+010.0000000000E+00+
*       3.8947368421E+00               0
GRID*               1924               04.0000000000E+010.0000000000E+00+
*       2.9210526316E+00               0
GRID*               1925               03.9000000000E+010.0000000000E+00+
*       1.9473684211E+00               0
GRID*               1926               04.0000000000E+010.0000000000E+00+
*       9.7368421053E-01               0
GRID*               1927               03.9000000000E+010.0000000000E+00+
*       0.0000000000E+00               0
GRID*               1928               04.0000000000E+010.0000000000E+00+
*       -9.736842105E-01               0
GRID*               1929               03.9000000000E+010.0000000000E+00+
*       -1.947368421E+00               0
GRID*               1930               04.0000000000E+010.0000000000E+00+
*       -2.921052632E+00               0
GRID*               1931               03.9000000000E+010.0000000000E+00+
*       -3.894736842E+00               0
GRID*               1932               04.0000000000E+010.0000000000E+00+
*       -4.868421053E+00               0
GRID*               1933               03.9000000000E+010.0000000000E+00+
*       -5.842105263E+00               0
GRID*               1934               04.0000000000E+010.0000000000E+00+
*       -6.815789474E+00               0
GRID*               1935               03.9000000000E+010.0000000000E+00+
*       -7.789473684E+00               0
GRID*               1936               04.0000000000E+010.0000000000E+00+
*       -8.763157895E+00               0
GRID*               1937               03.9000000000E+010.0000000000E+00+
*       -9.736842105E+00               0
GRID*               1938               04.0000000000E+010.0000000000E+00+
*       -1.071052632E+01               0
GRID*               1939               03.9000000000E+010.0000000000E+00+
*       -1.168421053E+01               0
GRID*               1940               04.0000000000E+010.0000000000E+00+
*       -1.265789474E+01               0
GRID*               1941               03.9000000000E+010.0000000000E+00+
*       -1.363157895E+01               0
GRID*               1942               04.0000000000E+010.0000000000E+00+
*       -1.460526316E+01               0
GRID*               1943               03.9000000000E+010.0000000000E+00+
*       -1.557894737E+01               0
GRID*               1944               04.0000000000E+010.0000000000E+00+
*       -1.655263158E+01               0
GRID*               1945               03.8000000000E+010.0000000000E+00+
*       1.6552631579E+01               0
GRID*               1946               03.7000000000E+010.0000000000E+00+
*       1.5578947368E+01               0
GRID*               1947               03.8000000000E+010.0000000000E+00+
*       1.4605263158E+01               0
GRID*               1948               03.7000000000E+010.0000000000E+00+
*       1.3631578947E+01               0
GRID*               1949               03.8000000000E+010.0000000000E+00+
*       1.2657894737E+01               0
GRID*               1950               03.7000000000E+010.0000000000E+00+
*       1.1684210526E+01               0
GRID*               1951               03.8000000000E+010.0000000000E+00+
*       1.0710526316E+01               0
GRID*               1952               03.7000000000E+010.0000000000E+00+
*       9.7368421053E+00               0
GRID*               1953               03.8000000000E+010.0000000000E+00+
*       8.7631578947E+00               0
GRID*               1954               03.7000000000E+010.0000000000E+00+
*       7.7894736842E+00               0
GRID*               1955               03.8000000000E+010.0000000000E+00+
*       6.8157894737E+00               0
GRID*               1956               03.7000000000E+010.0000000000E+00+
*       5.8421052632E+00               0
GRID*               1957               03.8000000000E+010.0000000000E+00+
*       4.8684210526E+00               0
GRID*               1958               03.7000000000E+010.0000000000E+00+
*       3.8947368421E+00               0
GRID*               1959               03.8000000000E+010.0000000000E+00+
*       2.9210526316E+00               0
GRID*               1960               03.7000000000E+010.0000000000E+00+
*       1.9473684211E+00               0
GRID*               1961               03.8000000000E+010.0000000000E+00+
*       9.7368421053E-01               0
GRID*               1962               03.7000000000E+010.0000000000E+00+
*       0.0000000000E+00               0
GRID*               1963               03.8000000000E+010.0000000000E+00+
*       -9.736842105E-01               0
GRID*               1964               03.7000000000E+010.0000000000E+00+
*       -1.947368421E+00               0
GRID*               1965               03.8000000000E+010.0000000000E+00+
*       -2.921052632E+00               0
GRID*               1966               03.7000000000E+010.0000000000E+00+
*       -3.894736842E+00               0
GRID*               1967               03.8000000000E+010.0000000000E+00+
*       -4.868421053E+00               0
GRID*               1968               03.7000000000E+010.0000000000E+00+
*       -5.842105263E+00               0
GRID*               1969               03.8000000000E+010.0000000000E+00+
*       -6.815789474E+00               0
GRID*               1970               03.7000000000E+010.0000000000E+00+
*       -7.789473684E+00               0
GRID*               1971               03.8000000000E+010.0000000000E+00+
*       -8.763157895E+00               0
GRID*               1972               03.7000000000E+010.0000000000E+00+
*       -9.736842105E+00               0
GRID*               1973               03.8000000000E+010.0000000000E+00+
*       -1.071052632E+01               0
GRID*               1974               03.7000000000E+010.0000000000E+00+
*       -1.168421053E+01               0
GRID*               1975               03.8000000000E+010.0000000000E+00+
*       -1.265789474E+01               0
GRID*               1976               03.7000000000E+010.0000000000E+00+
*       -1.363157895E+01               0
GRID*               1977               03.8000000000E+010.0000000000E+00+
*       -1.460526316E+01               0
GRID*               1978               03.7000000000E+010.0000000000E+00+
*       -1.557894737E+01               0
GRID*               1979               03.8000000000E+010.0000000000E+00+
*       -1.655263158E+01               0
GRID*               1980               03.6000000000E+010.0000000000E+00+
*       1.6552631579E+01               0
GRID*               1981               03.5000000000E+010.0000000000E+00+
*       1.5578947368E+01               0
GRID*               1982               03.6000000000E+010.0000000000E+00+
*       1.4605263158E+01               0
GRID*               1983               03.5000000000E+010.0000000000E+00+
*       1.3631578947E+01               0
GRID*               1984               03.6000000000E+010.0000000000E+00+
*       1.2657894737E+01               0
GRID*               1985               03.5000000000E+010.0000000000E+00+
*       1.1684210526E+01               0
GRID*               1986               03.6000000000E+010.0000000000E+00+
*       1.0710526316E+01               0
GRID*               1987               03.5000000000E+010.0000000000E+00+
*       9.7368421053E+00               0
GRID*               1988               03.6000000000E+010.0000000000E+00+
*       8.7631578947E+00               0
GRID*               1989               03.5000000000E+010.0000000000E+00+
*       7.7894736842E+00               0
GRID*               1990               03.6000000000E+010.0000000000E+00+
*       6.8157894737E+00               0
GRID*               1991               03.5000000000E+010.0000000000E+00+
*       5.8421052632E+00               0
GRID*               1992               03.6000000000E+010.0000000000E+00+
*       4.8684210526E+00               0
GRID*               1993               03.5000000000E+010.0000000000E+00+
*       3.8947368421E+00               0
GRID*               1994               03.6000000000E+010.0000000000E+00+
*       2.9210526316E+00               0
GRID*               1995               03.5000000000E+010.0000000000E+00+
*       1.9473684211E+00               0
GRID*               1996               03.6000000000E+010.0000000000E+00+
*       9.7368421053E-01               0
GRID*               1997               03.5000000000E+010.0000000000E+00+
*       2.8865798640E-15               0
GRID*               1998               03.6000000000E+010.0000000000E+00+
*       -9.736842105E-01               0
GRID*               1999               03.5000000000E+010.0000000000E+00+
*       -1.947368421E+00               0
GRID*               2000               03.6000000000E+010.0000000000E+00+
*       -2.921052632E+00               0
GRID*               2001               03.5000000000E+010.0000000000E+00+
*       -3.894736842E+00               0
GRID*               2002               03.6000000000E+010.0000000000E+00+
*       -4.868421053E+00               0
GRID*               2003               03.5000000000E+010.0000000000E+00+
*       -5.842105263E+00               0
GRID*               2004               03.6000000000E+010.0000000000E+00+
*       -6.815789474E+00               0
GRID*               2005               03.5000000000E+010.0000000000E+00+
*       -7.789473684E+00               0
GRID*               2006               03.6000000000E+010.0000000000E+00+
*       -8.763157895E+00               0
GRID*               2007               03.5000000000E+010.0000000000E+00+
*       -9.736842105E+00               0
GRID*               2008               03.6000000000E+010.0000000000E+00+
*       -1.071052632E+01               0
GRID*               2009               03.5000000000E+010.0000000000E+00+
*       -1.168421053E+01               0
GRID*               2010               03.6000000000E+010.0000000000E+00+
*       -1.265789474E+01               0
GRID*               2011               03.5000000000E+010.0000000000E+00+
*       -1.363157895E+01               0
GRID*               2012               03.6000000000E+010.0000000000E+00+
*       -1.460526316E+01               0
GRID*               2013               03.5000000000E+010.0000000000E+00+
*       -1.557894737E+01               0
GRID*               2014               03.6000000000E+010.0000000000E+00+
*       -1.655263158E+01               0
GRID*               2015               03.4000000000E+010.0000000000E+00+
*       1.6552631579E+01               0
GRID*               2016               03.3000000000E+010.0000000000E+00+
*       1.5578947368E+01               0
GRID*               2017               03.4000000000E+010.0000000000E+00+
*       1.4605263158E+01               0
GRID*               2018               03.3000000000E+010.0000000000E+00+
*       1.3631578947E+01               0
GRID*               2019               03.4000000000E+010.0000000000E+00+
*       1.2657894737E+01               0
GRID*               2020               03.3000000000E+010.0000000000E+00+
*       1.1684210526E+01               0
GRID*               2021               03.4000000000E+010.0000000000E+00+
*       1.0710526316E+01               0
GRID*               2022               03.3000000000E+010.0000000000E+00+
*       9.7368421053E+00               0
GRID*               2023               03.4000000000E+010.0000000000E+00+
*       8.7631578947E+00               0
GRID*               2024               03.3000000000E+010.0000000000E+00+
*       7.7894736842E+00               0
GRID*               2025               03.4000000000E+010.0000000000E+00+
*       6.8157894737E+00               0
GRID*               2026               03.3000000000E+010.0000000000E+00+
*       5.8421052632E+00               0
GRID*               2027               03.4000000000E+010.0000000000E+00+
*       4.8684210526E+00               0
GRID*               2028               03.3000000000E+010.0000000000E+00+
*       3.8947368421E+00               0
GRID*               2029               03.4000000000E+010.0000000000E+00+
*       2.9210526316E+00               0
GRID*               2030               03.3000000000E+010.0000000000E+00+
*       1.9473684211E+00               0
GRID*               2031               03.4000000000E+010.0000000000E+00+
*       9.7368421053E-01               0
GRID*               2032               03.3000000000E+010.0000000000E+00+
*       3.5527136788E-15               0
GRID*               2033               03.4000000000E+010.0000000000E+00+
*       -9.736842105E-01               0
GRID*               2034               03.3000000000E+010.0000000000E+00+
*       -1.947368421E+00               0
GRID*               2035               03.4000000000E+010.0000000000E+00+
*       -2.921052632E+00               0
GRID*               2036               03.3000000000E+010.0000000000E+00+
*       -3.894736842E+00               0
GRID*               2037               03.4000000000E+010.0000000000E+00+
*       -4.868421053E+00               0
GRID*               2038               03.3000000000E+010.0000000000E+00+
*       -5.842105263E+00               0
GRID*               2039               03.4000000000E+010.0000000000E+00+
*       -6.815789474E+00               0
GRID*               2040               03.3000000000E+010.0000000000E+00+
*       -7.789473684E+00               0
GRID*               2041               03.4000000000E+010.0000000000E+00+
*       -8.763157895E+00               0
GRID*               2042               03.3000000000E+010.0000000000E+00+
*       -9.736842105E+00               0
GRID*               2043               03.4000000000E+010.0000000000E+00+
*       -1.071052632E+01               0
GRID*               2044               03.3000000000E+010.0000000000E+00+
*       -1.168421053E+01               0
GRID*               2045               03.4000000000E+010.0000000000E+00+
*       -1.265789474E+01               0
GRID*               2046               03.3000000000E+010.0000000000E+00+
*       -1.363157895E+01               0
GRID*               2047               03.4000000000E+010.0000000000E+00+
*       -1.460526316E+01               0
GRID*               2048               03.3000000000E+010.0000000000E+00+
*       -1.557894737E+01               0
GRID*               2049               03.4000000000E+010.0000000000E+00+
*       -1.655263158E+01               0
GRID*               2050               03.2000000000E+010.0000000000E+00+
*       1.6552631579E+01               0
GRID*               2051               03.1000000000E+010.0000000000E+00+
*       1.5578947368E+01               0
GRID*               2052               03.2000000000E+010.0000000000E+00+
*       1.4605263158E+01               0
GRID*               2053               03.1000000000E+010.0000000000E+00+
*       1.3631578947E+01               0
GRID*               2054               03.2000000000E+010.0000000000E+00+
*       1.2657894737E+01               0
GRID*               2055               03.1000000000E+010.0000000000E+00+
*       1.1684210526E+01               0
GRID*               2056               03.2000000000E+010.0000000000E+00+
*       1.0710526316E+01               0
GRID*               2057               03.1000000000E+010.0000000000E+00+
*       9.7368421053E+00               0
GRID*               2058               03.2000000000E+010.0000000000E+00+
*       8.7631578947E+00               0
GRID*               2059               03.1000000000E+010.0000000000E+00+
*       7.7894736842E+00               0
GRID*               2060               03.2000000000E+010.0000000000E+00+
*       6.8157894737E+00               0
GRID*               2061               03.1000000000E+010.0000000000E+00+
*       5.8421052632E+00               0
GRID*               2062               03.2000000000E+010.0000000000E+00+
*       4.8684210526E+00               0
GRID*               2063               03.1000000000E+010.0000000000E+00+
*       3.8947368421E+00               0
GRID*               2064               03.2000000000E+010.0000000000E+00+
*       2.9210526316E+00               0
GRID*               2065               03.1000000000E+010.0000000000E+00+
*       1.9473684211E+00               0
GRID*               2066               03.2000000000E+010.0000000000E+00+
*       9.7368421053E-01               0
GRID*               2067               03.1000000000E+010.0000000000E+00+
*       1.7486012638E-15               0
GRID*               2068               03.2000000000E+010.0000000000E+00+
*       -9.736842105E-01               0
GRID*               2069               03.1000000000E+010.0000000000E+00+
*       -1.947368421E+00               0
GRID*               2070               03.2000000000E+010.0000000000E+00+
*       -2.921052632E+00               0
GRID*               2071               03.1000000000E+010.0000000000E+00+
*       -3.894736842E+00               0
GRID*               2072               03.2000000000E+010.0000000000E+00+
*       -4.868421053E+00               0
GRID*               2073               03.1000000000E+010.0000000000E+00+
*       -5.842105263E+00               0
GRID*               2074               03.2000000000E+010.0000000000E+00+
*       -6.815789474E+00               0
GRID*               2075               03.1000000000E+010.0000000000E+00+
*       -7.789473684E+00               0
GRID*               2076               03.2000000000E+010.0000000000E+00+
*       -8.763157895E+00               0
GRID*               2077               03.1000000000E+010.0000000000E+00+
*       -9.736842105E+00               0
GRID*               2078               03.2000000000E+010.0000000000E+00+
*       -1.071052632E+01               0
GRID*               2079               03.1000000000E+010.0000000000E+00+
*       -1.168421053E+01               0
GRID*               2080               03.2000000000E+010.0000000000E+00+
*       -1.265789474E+01               0
GRID*               2081               03.1000000000E+010.0000000000E+00+
*       -1.363157895E+01               0
GRID*               2082               03.2000000000E+010.0000000000E+00+
*       -1.460526316E+01               0
GRID*               2083               03.1000000000E+010.0000000000E+00+
*       -1.557894737E+01               0
GRID*               2084               03.2000000000E+010.0000000000E+00+
*       -1.655263158E+01               0
GRID*               2085               03.0000000000E+010.0000000000E+00+
*       1.6552631579E+01               0
GRID*               2086               02.9000000000E+010.0000000000E+00+
*       1.5578947368E+01               0
GRID*               2087               03.0000000000E+010.0000000000E+00+
*       1.4605263158E+01               0
GRID*               2088               02.9000000000E+010.0000000000E+00+
*       1.3631578947E+01               0
GRID*               2089               03.0000000000E+010.0000000000E+00+
*       1.2657894737E+01               0
GRID*               2090               02.9000000000E+010.0000000000E+00+
*       1.1684210526E+01               0
GRID*               2091               03.0000000000E+010.0000000000E+00+
*       1.0710526316E+01               0
GRID*               2092               02.9000000000E+010.0000000000E+00+
*       9.7368421053E+00               0
GRID*               2093               03.0000000000E+010.0000000000E+00+
*       8.7631578947E+00               0
GRID*               2094               02.9000000000E+010.0000000000E+00+
*       7.7894736842E+00               0
GRID*               2095               03.0000000000E+010.0000000000E+00+
*       6.8157894737E+00               0
GRID*               2096               02.9000000000E+010.0000000000E+00+
*       5.8421052632E+00               0
GRID*               2097               03.0000000000E+010.0000000000E+00+
*       4.8684210526E+00               0
GRID*               2098               02.9000000000E+010.0000000000E+00+
*       3.8947368421E+00               0
GRID*               2099               03.0000000000E+010.0000000000E+00+
*       2.9210526316E+00               0
GRID*               2100               02.9000000000E+010.0000000000E+00+
*       1.9473684211E+00               0
GRID*               2101               03.0000000000E+010.0000000000E+00+
*       9.7368421053E-01               0
GRID*               2102               02.9000000000E+010.0000000000E+00+
*       3.0808688933E-15               0
GRID*               2103               03.0000000000E+010.0000000000E+00+
*       -9.736842105E-01               0
GRID*               2104               02.9000000000E+010.0000000000E+00+
*       -1.947368421E+00               0
GRID*               2105               03.0000000000E+010.0000000000E+00+
*       -2.921052632E+00               0
GRID*               2106               02.9000000000E+010.0000000000E+00+
*       -3.894736842E+00               0
GRID*               2107               03.0000000000E+010.0000000000E+00+
*       -4.868421053E+00               0
GRID*               2108               02.9000000000E+010.0000000000E+00+
*       -5.842105263E+00               0
GRID*               2109               03.0000000000E+010.0000000000E+00+
*       -6.815789474E+00               0
GRID*               2110               02.9000000000E+010.0000000000E+00+
*       -7.789473684E+00               0
GRID*               2111               03.0000000000E+010.0000000000E+00+
*       -8.763157895E+00               0
GRID*               2112               02.9000000000E+010.0000000000E+00+
*       -9.736842105E+00               0
GRID*               2113               03.0000000000E+010.0000000000E+00+
*       -1.071052632E+01               0
GRID*               2114               02.9000000000E+010.0000000000E+00+
*       -1.168421053E+01               0
GRID*               2115               03.0000000000E+010.0000000000E+00+
*       -1.265789474E+01               0
GRID*               2116               02.9000000000E+010.0000000000E+00+
*       -1.363157895E+01               0
GRID*               2117               03.0000000000E+010.0000000000E+00+
*       -1.460526316E+01               0
GRID*               2118               02.9000000000E+010.0000000000E+00+
*       -1.557894737E+01               0
GRID*               2119               03.0000000000E+010.0000000000E+00+
*       -1.655263158E+01               0
GRID*               2120               02.8000000000E+010.0000000000E+00+
*       1.6552631579E+01               0
GRID*               2121               02.7000000000E+010.0000000000E+00+
*       1.5578947368E+01               0
GRID*               2122               02.8000000000E+010.0000000000E+00+
*       1.4605263158E+01               0
GRID*               2123               02.7000000000E+010.0000000000E+00+
*       1.3631578947E+01               0
GRID*               2124               02.8000000000E+010.0000000000E+00+
*       1.2657894737E+01               0
GRID*               2125               02.7000000000E+010.0000000000E+00+
*       1.1684210526E+01               0
GRID*               2126               02.8000000000E+010.0000000000E+00+
*       1.0710526316E+01               0
GRID*               2127               02.7000000000E+010.0000000000E+00+
*       9.7368421053E+00               0
GRID*               2128               02.8000000000E+010.0000000000E+00+
*       8.7631578947E+00               0
GRID*               2129               02.7000000000E+010.0000000000E+00+
*       7.7894736842E+00               0
GRID*               2130               02.8000000000E+010.0000000000E+00+
*       6.8157894737E+00               0
GRID*               2131               02.7000000000E+010.0000000000E+00+
*       5.8421052632E+00               0
GRID*               2132               02.8000000000E+010.0000000000E+00+
*       4.8684210526E+00               0
GRID*               2133               02.7000000000E+010.0000000000E+00+
*       3.8947368421E+00               0
GRID*               2134               02.8000000000E+010.0000000000E+00+
*       2.9210526316E+00               0
GRID*               2135               02.7000000000E+010.0000000000E+00+
*       1.9473684211E+00               0
GRID*               2136               02.8000000000E+010.0000000000E+00+
*       9.7368421053E-01               0
GRID*               2137               02.7000000000E+010.0000000000E+00+
*       -4.163336342E-15               0
GRID*               2138               02.8000000000E+010.0000000000E+00+
*       -9.736842105E-01               0
GRID*               2139               02.7000000000E+010.0000000000E+00+
*       -1.947368421E+00               0
GRID*               2140               02.8000000000E+010.0000000000E+00+
*       -2.921052632E+00               0
GRID*               2141               02.7000000000E+010.0000000000E+00+
*       -3.894736842E+00               0
GRID*               2142               02.8000000000E+010.0000000000E+00+
*       -4.868421053E+00               0
GRID*               2143               02.7000000000E+010.0000000000E+00+
*       -5.842105263E+00               0
GRID*               2144               02.8000000000E+010.0000000000E+00+
*       -6.815789474E+00               0
GRID*               2145               02.7000000000E+010.0000000000E+00+
*       -7.789473684E+00               0
GRID*               2146               02.8000000000E+010.0000000000E+00+
*       -8.763157895E+00               0
GRID*               2147               02.7000000000E+010.0000000000E+00+
*       -9.736842105E+00               0
GRID*               2148               02.8000000000E+010.0000000000E+00+
*       -1.071052632E+01               0
GRID*               2149               02.7000000000E+010.0000000000E+00+
*       -1.168421053E+01               0
GRID*               2150               02.8000000000E+010.0000000000E+00+
*       -1.265789474E+01               0
GRID*               2151               02.7000000000E+010.0000000000E+00+
*       -1.363157895E+01               0
GRID*               2152               02.8000000000E+010.0000000000E+00+
*       -1.460526316E+01               0
GRID*               2153               02.7000000000E+010.0000000000E+00+
*       -1.557894737E+01               0
GRID*               2154               02.8000000000E+010.0000000000E+00+
*       -1.655263158E+01               0
GRID*               2155               02.6000000000E+010.0000000000E+00+
*       1.6552631579E+01               0
GRID*               2156               02.5000000000E+010.0000000000E+00+
*       1.5578947368E+01               0
GRID*               2157               02.6000000000E+010.0000000000E+00+
*       1.4605263158E+01               0
GRID*               2158               02.5000000000E+010.0000000000E+00+
*       1.3631578947E+01               0
GRID*               2159               02.6000000000E+010.0000000000E+00+
*       1.2657894737E+01               0
GRID*               2160               02.5000000000E+010.0000000000E+00+
*       1.1684210526E+01               0
GRID*               2161               02.6000000000E+010.0000000000E+00+
*       1.0710526316E+01               0
GRID*               2162               02.5000000000E+010.0000000000E+00+
*       9.7368421053E+00               0
GRID*               2163               02.6000000000E+010.0000000000E+00+
*       8.7631578947E+00               0
GRID*               2164               02.5000000000E+010.0000000000E+00+
*       7.7894736842E+00               0
GRID*               2165               02.6000000000E+010.0000000000E+00+
*       6.8157894737E+00               0
GRID*               2166               02.5000000000E+010.0000000000E+00+
*       5.8421052632E+00               0
GRID*               2167               02.6000000000E+010.0000000000E+00+
*       4.8684210526E+00               0
GRID*               2168               02.5000000000E+010.0000000000E+00+
*       3.8947368421E+00               0
GRID*               2169               02.6000000000E+010.0000000000E+00+
*       2.9210526316E+00               0
GRID*               2170               02.5000000000E+010.0000000000E+00+
*       1.9473684211E+00               0
GRID*               2171               02.6000000000E+010.0000000000E+00+
*       9.7368421053E-01               0
GRID*               2172               02.5000000000E+010.0000000000E+00+
*       0.0000000000E+00               0
GRID*               2173               02.6000000000E+010.0000000000E+00+
*       -9.736842105E-01               0
GRID*               2174               02.5000000000E+010.0000000000E+00+
*       -1.947368421E+00               0
GRID*               2175               02.6000000000E+010.0000000000E+00+
*       -2.921052632E+00               0
GRID*               2176               02.5000000000E+010.0000000000E+00+
*       -3.894736842E+00               0
GRID*               2177               02.6000000000E+010.0000000000E+00+
*       -4.868421053E+00               0
GRID*               2178               02.5000000000E+010.0000000000E+00+
*       -5.842105263E+00               0
GRID*               2179               02.6000000000E+010.0000000000E+00+
*       -6.815789474E+00               0
GRID*               2180               02.5000000000E+010.0000000000E+00+
*       -7.789473684E+00               0
GRID*               2181               02.6000000000E+010.0000000000E+00+
*       -8.763157895E+00               0
GRID*               2182               02.5000000000E+010.0000000000E+00+
*       -9.736842105E+00               0
GRID*               2183               02.6000000000E+010.0000000000E+00+
*       -1.071052632E+01               0
GRID*               2184               02.5000000000E+010.0000000000E+00+
*       -1.168421053E+01               0
GRID*               2185               02.6000000000E+010.0000000000E+00+
*       -1.265789474E+01               0
GRID*               2186               02.5000000000E+010.0000000000E+00+
*       -1.363157895E+01               0
GRID*               2187               02.6000000000E+010.0000000000E+00+
*       -1.460526316E+01               0
GRID*               2188               02.5000000000E+010.0000000000E+00+
*       -1.557894737E+01               0
GRID*               2189               02.6000000000E+010.0000000000E+00+
*       -1.655263158E+01               0
GRID*               2190               02.4000000000E+010.0000000000E+00+
*       1.6552631579E+01               0
GRID*               2191               02.3000000000E+010.0000000000E+00+
*       1.5578947368E+01               0
GRID*               2192               02.4000000000E+010.0000000000E+00+
*       1.4605263158E+01               0
GRID*               2193               02.3000000000E+010.0000000000E+00+
*       1.3631578947E+01               0
GRID*               2194               02.4000000000E+010.0000000000E+00+
*       1.2657894737E+01               0
GRID*               2195               02.3000000000E+010.0000000000E+00+
*       1.1684210526E+01               0
GRID*               2196               02.4000000000E+010.0000000000E+00+
*       1.0710526316E+01               0
GRID*               2197               02.3000000000E+010.0000000000E+00+
*       9.7368421053E+00               0
GRID*               2198               02.4000000000E+010.0000000000E+00+
*       8.7631578947E+00               0
GRID*               2199               02.3000000000E+010.0000000000E+00+
*       7.7894736842E+00               0
GRID*               2200               02.4000000000E+010.0000000000E+00+
*       6.8157894737E+00               0
GRID*               2201               02.3000000000E+010.0000000000E+00+
*       5.8421052632E+00               0
GRID*               2202               02.4000000000E+010.0000000000E+00+
*       4.8684210526E+00               0
GRID*               2203               02.3000000000E+010.0000000000E+00+
*       3.8947368421E+00               0
GRID*               2204               02.4000000000E+010.0000000000E+00+
*       2.9210526316E+00               0
GRID*               2205               02.3000000000E+010.0000000000E+00+
*       1.9473684211E+00               0
GRID*               2206               02.4000000000E+010.0000000000E+00+
*       9.7368421053E-01               0
GRID*               2207               02.3000000000E+010.0000000000E+00+
*       6.7168492990E-15               0
GRID*               2208               02.4000000000E+010.0000000000E+00+
*       -9.736842105E-01               0
GRID*               2209               02.3000000000E+010.0000000000E+00+
*       -1.947368421E+00               0
GRID*               2210               02.4000000000E+010.0000000000E+00+
*       -2.921052632E+00               0
GRID*               2211               02.3000000000E+010.0000000000E+00+
*       -3.894736842E+00               0
GRID*               2212               02.4000000000E+010.0000000000E+00+
*       -4.868421053E+00               0
GRID*               2213               02.3000000000E+010.0000000000E+00+
*       -5.842105263E+00               0
GRID*               2214               02.4000000000E+010.0000000000E+00+
*       -6.815789474E+00               0
GRID*               2215               02.3000000000E+010.0000000000E+00+
*       -7.789473684E+00               0
GRID*               2216               02.4000000000E+010.0000000000E+00+
*       -8.763157895E+00               0
GRID*               2217               02.3000000000E+010.0000000000E+00+
*       -9.736842105E+00               0
GRID*               2218               02.4000000000E+010.0000000000E+00+
*       -1.071052632E+01               0
GRID*               2219               02.3000000000E+010.0000000000E+00+
*       -1.168421053E+01               0
GRID*               2220               02.4000000000E+010.0000000000E+00+
*       -1.265789474E+01               0
GRID*               2221               02.3000000000E+010.0000000000E+00+
*       -1.363157895E+01               0
GRID*               2222               02.4000000000E+010.0000000000E+00+
*       -1.460526316E+01               0
GRID*               2223               02.3000000000E+010.0000000000E+00+
*       -1.557894737E+01               0
GRID*               2224               02.4000000000E+010.0000000000E+00+
*       -1.655263158E+01               0
GRID*               2225               02.2000000000E+010.0000000000E+00+
*       1.6552631579E+01               0
GRID*               2226               02.1000000000E+010.0000000000E+00+
*       1.5578947368E+01               0
GRID*               2227               02.2000000000E+010.0000000000E+00+
*       1.4605263158E+01               0
GRID*               2228               02.1000000000E+010.0000000000E+00+
*       1.3631578947E+01               0
GRID*               2229               02.2000000000E+010.0000000000E+00+
*       1.2657894737E+01               0
GRID*               2230               02.1000000000E+010.0000000000E+00+
*       1.1684210526E+01               0
GRID*               2231               02.2000000000E+010.0000000000E+00+
*       1.0710526316E+01               0
GRID*               2232               02.1000000000E+010.0000000000E+00+
*       9.7368421053E+00               0
GRID*               2233               02.2000000000E+010.0000000000E+00+
*       8.7631578947E+00               0
GRID*               2234               02.1000000000E+010.0000000000E+00+
*       7.7894736842E+00               0
GRID*               2235               02.2000000000E+010.0000000000E+00+
*       6.8157894737E+00               0
GRID*               2236               02.1000000000E+010.0000000000E+00+
*       5.8421052632E+00               0
GRID*               2237               02.2000000000E+010.0000000000E+00+
*       4.8684210526E+00               0
GRID*               2238               02.1000000000E+010.0000000000E+00+
*       3.8947368421E+00               0
GRID*               2239               02.2000000000E+010.0000000000E+00+
*       2.9210526316E+00               0
GRID*               2240               02.1000000000E+010.0000000000E+00+
*       1.9473684211E+00               0
GRID*               2241               02.2000000000E+010.0000000000E+00+
*       9.7368421053E-01               0
GRID*               2242               02.1000000000E+010.0000000000E+00+
*       8.2156503822E-15               0
GRID*               2243               02.2000000000E+010.0000000000E+00+
*       -9.736842105E-01               0
GRID*               2244               02.1000000000E+010.0000000000E+00+
*       -1.947368421E+00               0
GRID*               2245               02.2000000000E+010.0000000000E+00+
*       -2.921052632E+00               0
GRID*               2246               02.1000000000E+010.0000000000E+00+
*       -3.894736842E+00               0
GRID*               2247               02.2000000000E+010.0000000000E+00+
*       -4.868421053E+00               0
GRID*               2248               02.1000000000E+010.0000000000E+00+
*       -5.842105263E+00               0
GRID*               2249               02.2000000000E+010.0000000000E+00+
*       -6.815789474E+00               0
GRID*               2250               02.1000000000E+010.0000000000E+00+
*       -7.789473684E+00               0
GRID*               2251               02.2000000000E+010.0000000000E+00+
*       -8.763157895E+00               0
GRID*               2252               02.1000000000E+010.0000000000E+00+
*       -9.736842105E+00               0
GRID*               2253               02.2000000000E+010.0000000000E+00+
*       -1.071052632E+01               0
GRID*               2254               02.1000000000E+010.0000000000E+00+
*       -1.168421053E+01               0
GRID*               2255               02.2000000000E+010.0000000000E+00+
*       -1.265789474E+01               0
GRID*               2256               02.1000000000E+010.0000000000E+00+
*       -1.363157895E+01               0
GRID*               2257               02.2000000000E+010.0000000000E+00+
*       -1.460526316E+01               0
GRID*               2258               02.1000000000E+010.0000000000E+00+
*       -1.557894737E+01               0
GRID*               2259               02.2000000000E+010.0000000000E+00+
*       -1.655263158E+01               0
GRID*               2260               02.0000000000E+010.0000000000E+00+
*       1.6552631579E+01               0
GRID*               2261               01.9000000000E+010.0000000000E+00+
*       1.5578947368E+01               0
GRID*               2262               02.0000000000E+010.0000000000E+00+
*       1.4605263158E+01               0
GRID*               2263               01.9000000000E+010.0000000000E+00+
*       1.3631578947E+01               0
GRID*               2264               02.0000000000E+010.0000000000E+00+
*       1.2657894737E+01               0
GRID*               2265               01.9000000000E+010.0000000000E+00+
*       1.1684210526E+01               0
GRID*               2266               02.0000000000E+010.0000000000E+00+
*       1.0710526316E+01               0
GRID*               2267               01.9000000000E+010.0000000000E+00+
*       9.7368421053E+00               0
GRID*               2268               02.0000000000E+010.0000000000E+00+
*       8.7631578947E+00               0
GRID*               2269               01.9000000000E+010.0000000000E+00+
*       7.7894736842E+00               0
GRID*               2270               02.0000000000E+010.0000000000E+00+
*       6.8157894737E+00               0
GRID*               2271               01.9000000000E+010.0000000000E+00+
*       5.8421052632E+00               0
GRID*               2272               02.0000000000E+010.0000000000E+00+
*       4.8684210526E+00               0
GRID*               2273               01.9000000000E+010.0000000000E+00+
*       3.8947368421E+00               0
GRID*               2274               02.0000000000E+010.0000000000E+00+
*       2.9210526316E+00               0
GRID*               2275               01.9000000000E+010.0000000000E+00+
*       1.9473684211E+00               0
GRID*               2276               02.0000000000E+010.0000000000E+00+
*       9.7368421053E-01               0
GRID*               2277               01.9000000000E+010.0000000000E+00+
*       1.3183898417E-15               0
GRID*               2278               02.0000000000E+010.0000000000E+00+
*       -9.736842105E-01               0
GRID*               2279               01.9000000000E+010.0000000000E+00+
*       -1.947368421E+00               0
GRID*               2280               02.0000000000E+010.0000000000E+00+
*       -2.921052632E+00               0
GRID*               2281               01.9000000000E+010.0000000000E+00+
*       -3.894736842E+00               0
GRID*               2282               02.0000000000E+010.0000000000E+00+
*       -4.868421053E+00               0
GRID*               2283               01.9000000000E+010.0000000000E+00+
*       -5.842105263E+00               0
GRID*               2284               02.0000000000E+010.0000000000E+00+
*       -6.815789474E+00               0
GRID*               2285               01.9000000000E+010.0000000000E+00+
*       -7.789473684E+00               0
GRID*               2286               02.0000000000E+010.0000000000E+00+
*       -8.763157895E+00               0
GRID*               2287               01.9000000000E+010.0000000000E+00+
*       -9.736842105E+00               0
GRID*               2288               02.0000000000E+010.0000000000E+00+
*       -1.071052632E+01               0
GRID*               2289               01.9000000000E+010.0000000000E+00+
*       -1.168421053E+01               0
GRID*               2290               02.0000000000E+010.0000000000E+00+
*       -1.265789474E+01               0
GRID*               2291               01.9000000000E+010.0000000000E+00+
*       -1.363157895E+01               0
GRID*               2292               02.0000000000E+010.0000000000E+00+
*       -1.460526316E+01               0
GRID*               2293               01.9000000000E+010.0000000000E+00+
*       -1.557894737E+01               0
GRID*               2294               02.0000000000E+010.0000000000E+00+
*       -1.655263158E+01               0
GRID*               2295               01.8000000000E+010.0000000000E+00+
*       1.6552631579E+01               0
GRID*               2296               01.7000000000E+010.0000000000E+00+
*       1.5578947368E+01               0
GRID*               2297               01.8000000000E+010.0000000000E+00+
*       1.4605263158E+01               0
GRID*               2298               01.7000000000E+010.0000000000E+00+
*       1.3631578947E+01               0
GRID*               2299               01.8000000000E+010.0000000000E+00+
*       1.2657894737E+01               0
GRID*               2300               01.7000000000E+010.0000000000E+00+
*       1.1684210526E+01               0
GRID*               2301               01.8000000000E+010.0000000000E+00+
*       1.0710526316E+01               0
GRID*               2302               01.7000000000E+010.0000000000E+00+
*       9.7368421053E+00               0
GRID*               2303               01.8000000000E+010.0000000000E+00+
*       8.7631578947E+00               0
GRID*               2304               01.7000000000E+010.0000000000E+00+
*       7.7894736842E+00               0
GRID*               2305               01.8000000000E+010.0000000000E+00+
*       6.8157894737E+00               0
GRID*               2306               01.7000000000E+010.0000000000E+00+
*       5.8421052632E+00               0
GRID*               2307               01.8000000000E+010.0000000000E+00+
*       4.8684210526E+00               0
GRID*               2308               01.7000000000E+010.0000000000E+00+
*       3.8947368421E+00               0
GRID*               2309               01.8000000000E+010.0000000000E+00+
*       2.9210526316E+00               0
GRID*               2310               01.7000000000E+010.0000000000E+00+
*       1.9473684211E+00               0
GRID*               2311               01.8000000000E+010.0000000000E+00+
*       9.7368421053E-01               0
GRID*               2312               01.7000000000E+010.0000000000E+00+
*       -2.164934898E-15               0
GRID*               2313               01.8000000000E+010.0000000000E+00+
*       -9.736842105E-01               0
GRID*               2314               01.7000000000E+010.0000000000E+00+
*       -1.947368421E+00               0
GRID*               2315               01.8000000000E+010.0000000000E+00+
*       -2.921052632E+00               0
GRID*               2316               01.7000000000E+010.0000000000E+00+
*       -3.894736842E+00               0
GRID*               2317               01.8000000000E+010.0000000000E+00+
*       -4.868421053E+00               0
GRID*               2318               01.7000000000E+010.0000000000E+00+
*       -5.842105263E+00               0
GRID*               2319               01.8000000000E+010.0000000000E+00+
*       -6.815789474E+00               0
GRID*               2320               01.7000000000E+010.0000000000E+00+
*       -7.789473684E+00               0
GRID*               2321               01.8000000000E+010.0000000000E+00+
*       -8.763157895E+00               0
GRID*               2322               01.7000000000E+010.0000000000E+00+
*       -9.736842105E+00               0
GRID*               2323               01.8000000000E+010.0000000000E+00+
*       -1.071052632E+01               0
GRID*               2324               01.7000000000E+010.0000000000E+00+
*       -1.168421053E+01               0
GRID*               2325               01.8000000000E+010.0000000000E+00+
*       -1.265789474E+01               0
GRID*               2326               01.7000000000E+010.0000000000E+00+
*       -1.363157895E+01               0
GRID*               2327               01.8000000000E+010.0000000000E+00+
*       -1.460526316E+01               0
GRID*               2328               01.7000000000E+010.0000000000E+00+
*       -1.557894737E+01               0
GRID*               2329               01.8000000000E+010.0000000000E+00+
*       -1.655263158E+01               0
GRID*               2330               01.6000000000E+010.0000000000E+00+
*       1.6552631579E+01               0
GRID*               2331               01.5000000000E+010.0000000000E+00+
*       1.5578947368E+01               0
GRID*               2332               01.6000000000E+010.0000000000E+00+
*       1.4605263158E+01               0
GRID*               2333               01.5000000000E+010.0000000000E+00+
*       1.3631578947E+01               0
GRID*               2334               01.6000000000E+010.0000000000E+00+
*       1.2657894737E+01               0
GRID*               2335               01.5000000000E+010.0000000000E+00+
*       1.1684210526E+01               0
GRID*               2336               01.6000000000E+010.0000000000E+00+
*       1.0710526316E+01               0
GRID*               2337               01.5000000000E+010.0000000000E+00+
*       9.7368421053E+00               0
GRID*               2338               01.6000000000E+010.0000000000E+00+
*       8.7631578947E+00               0
GRID*               2339               01.5000000000E+010.0000000000E+00+
*       7.7894736842E+00               0
GRID*               2340               01.6000000000E+010.0000000000E+00+
*       6.8157894737E+00               0
GRID*               2341               01.5000000000E+010.0000000000E+00+
*       5.8421052632E+00               0
GRID*               2342               01.6000000000E+010.0000000000E+00+
*       4.8684210526E+00               0
GRID*               2343               01.5000000000E+010.0000000000E+00+
*       3.8947368421E+00               0
GRID*               2344               01.6000000000E+010.0000000000E+00+
*       2.9210526316E+00               0
GRID*               2345               01.5000000000E+010.0000000000E+00+
*       1.9473684211E+00               0
GRID*               2346               01.6000000000E+010.0000000000E+00+
*       9.7368421053E-01               0
GRID*               2347               01.5000000000E+010.0000000000E+00+
*       -1.137978600E-15               0
GRID*               2348               01.6000000000E+010.0000000000E+00+
*       -9.736842105E-01               0
GRID*               2349               01.5000000000E+010.0000000000E+00+
*       -1.947368421E+00               0
GRID*               2350               01.6000000000E+010.0000000000E+00+
*       -2.921052632E+00               0
GRID*               2351               01.5000000000E+010.0000000000E+00+
*       -3.894736842E+00               0
GRID*               2352               01.6000000000E+010.0000000000E+00+
*       -4.868421053E+00               0
GRID*               2353               01.5000000000E+010.0000000000E+00+
*       -5.842105263E+00               0
GRID*               2354               01.6000000000E+010.0000000000E+00+
*       -6.815789474E+00               0
GRID*               2355               01.5000000000E+010.0000000000E+00+
*       -7.789473684E+00               0
GRID*               2356               01.6000000000E+010.0000000000E+00+
*       -8.763157895E+00               0
GRID*               2357               01.5000000000E+010.0000000000E+00+
*       -9.736842105E+00               0
GRID*               2358               01.6000000000E+010.0000000000E+00+
*       -1.071052632E+01               0
GRID*               2359               01.5000000000E+010.0000000000E+00+
*       -1.168421053E+01               0
GRID*               2360               01.6000000000E+010.0000000000E+00+
*       -1.265789474E+01               0
GRID*               2361               01.5000000000E+010.0000000000E+00+
*       -1.363157895E+01               0
GRID*               2362               01.6000000000E+010.0000000000E+00+
*       -1.460526316E+01               0
GRID*               2363               01.5000000000E+010.0000000000E+00+
*       -1.557894737E+01               0
GRID*               2364               01.6000000000E+010.0000000000E+00+
*       -1.655263158E+01               0
GRID*               2365               01.4000000000E+010.0000000000E+00+
*       1.6552631579E+01               0
GRID*               2366               01.3000000000E+010.0000000000E+00+
*       1.5578947368E+01               0
GRID*               2367               01.4000000000E+010.0000000000E+00+
*       1.4605263158E+01               0
GRID*               2368               01.3000000000E+010.0000000000E+00+
*       1.3631578947E+01               0
GRID*               2369               01.4000000000E+010.0000000000E+00+
*       1.2657894737E+01               0
GRID*               2370               01.3000000000E+010.0000000000E+00+
*       1.1684210526E+01               0
GRID*               2371               01.4000000000E+010.0000000000E+00+
*       1.0710526316E+01               0
GRID*               2372               01.3000000000E+010.0000000000E+00+
*       9.7368421053E+00               0
GRID*               2373               01.4000000000E+010.0000000000E+00+
*       8.7631578947E+00               0
GRID*               2374               01.3000000000E+010.0000000000E+00+
*       7.7894736842E+00               0
GRID*               2375               01.4000000000E+010.0000000000E+00+
*       6.8157894737E+00               0
GRID*               2376               01.3000000000E+010.0000000000E+00+
*       5.8421052632E+00               0
GRID*               2377               01.4000000000E+010.0000000000E+00+
*       4.8684210526E+00               0
GRID*               2378               01.3000000000E+010.0000000000E+00+
*       3.8947368421E+00               0
GRID*               2379               01.4000000000E+010.0000000000E+00+
*       2.9210526316E+00               0
GRID*               2380               01.3000000000E+010.0000000000E+00+
*       1.9473684211E+00               0
GRID*               2381               01.4000000000E+010.0000000000E+00+
*       9.7368421053E-01               0
GRID*               2382               01.3000000000E+010.0000000000E+00+
*       0.0000000000E+00               0
GRID*               2383               01.4000000000E+010.0000000000E+00+
*       -9.736842105E-01               0
GRID*               2384               01.3000000000E+010.0000000000E+00+
*       -1.947368421E+00               0
GRID*               2385               01.4000000000E+010.0000000000E+00+
*       -2.921052632E+00               0
GRID*               2386               01.3000000000E+010.0000000000E+00+
*       -3.894736842E+00               0
GRID*               2387               01.4000000000E+010.0000000000E+00+
*       -4.868421053E+00               0
GRID*               2388               01.3000000000E+010.0000000000E+00+
*       -5.842105263E+00               0
GRID*               2389               01.4000000000E+010.0000000000E+00+
*       -6.815789474E+00               0
GRID*               2390               01.3000000000E+010.0000000000E+00+
*       -7.789473684E+00               0
GRID*               2391               01.4000000000E+010.0000000000E+00+
*       -8.763157895E+00               0
GRID*               2392               01.3000000000E+010.0000000000E+00+
*       -9.736842105E+00               0
GRID*               2393               01.4000000000E+010.0000000000E+00+
*       -1.071052632E+01               0
GRID*               2394               01.3000000000E+010.0000000000E+00+
*       -1.168421053E+01               0
GRID*               2395               01.4000000000E+010.0000000000E+00+
*       -1.265789474E+01               0
GRID*               2396               01.3000000000E+010.0000000000E+00+
*       -1.363157895E+01               0
GRID*               2397               01.4000000000E+010.0000000000E+00+
*       -1.460526316E+01               0
GRID*               2398               01.3000000000E+010.0000000000E+00+
*       -1.557894737E+01               0
GRID*               2399               01.4000000000E+010.0000000000E+00+
*       -1.655263158E+01               0
GRID*               2400               01.2000000000E+010.0000000000E+00+
*       1.6552631579E+01               0
GRID*               2401               01.1000000000E+010.0000000000E+00+
*       1.5578947368E+01               0
GRID*               2402               01.2000000000E+010.0000000000E+00+
*       1.4605263158E+01               0
GRID*               2403               01.1000000000E+010.0000000000E+00+
*       1.3631578947E+01               0
GRID*               2404               01.2000000000E+010.0000000000E+00+
*       1.2657894737E+01               0
GRID*               2405               01.1000000000E+010.0000000000E+00+
*       1.1684210526E+01               0
GRID*               2406               01.2000000000E+010.0000000000E+00+
*       1.0710526316E+01               0
GRID*               2407               01.1000000000E+010.0000000000E+00+
*       9.7368421053E+00               0
GRID*               2408               01.2000000000E+010.0000000000E+00+
*       8.7631578947E+00               0
GRID*               2409               01.1000000000E+010.0000000000E+00+
*       7.7894736842E+00               0
GRID*               2410               01.2000000000E+010.0000000000E+00+
*       6.8157894737E+00               0
GRID*               2411               01.1000000000E+010.0000000000E+00+
*       5.8421052632E+00               0
GRID*               2412               01.2000000000E+010.0000000000E+00+
*       4.8684210526E+00               0
GRID*               2413               01.1000000000E+010.0000000000E+00+
*       3.8947368421E+00               0
GRID*               2414               01.2000000000E+010.0000000000E+00+
*       2.9210526316E+00               0
GRID*               2415               01.1000000000E+010.0000000000E+00+
*       1.9473684211E+00               0
GRID*               2416               01.2000000000E+010.0000000000E+00+
*       9.7368421053E-01               0
GRID*               2417               01.1000000000E+010.0000000000E+00+
*       1.9359513992E-15               0
GRID*               2418               01.2000000000E+010.0000000000E+00+
*       -9.736842105E-01               0
GRID*               2419               01.1000000000E+010.0000000000E+00+
*       -1.947368421E+00               0
GRID*               2420               01.2000000000E+010.0000000000E+00+
*       -2.921052632E+00               0
GRID*               2421               01.1000000000E+010.0000000000E+00+
*       -3.894736842E+00               0
GRID*               2422               01.2000000000E+010.0000000000E+00+
*       -4.868421053E+00               0
GRID*               2423               01.1000000000E+010.0000000000E+00+
*       -5.842105263E+00               0
GRID*               2424               01.2000000000E+010.0000000000E+00+
*       -6.815789474E+00               0
GRID*               2425               01.1000000000E+010.0000000000E+00+
*       -7.789473684E+00               0
GRID*               2426               01.2000000000E+010.0000000000E+00+
*       -8.763157895E+00               0
GRID*               2427               01.1000000000E+010.0000000000E+00+
*       -9.736842105E+00               0
GRID*               2428               01.2000000000E+010.0000000000E+00+
*       -1.071052632E+01               0
GRID*               2429               01.1000000000E+010.0000000000E+00+
*       -1.168421053E+01               0
GRID*               2430               01.2000000000E+010.0000000000E+00+
*       -1.265789474E+01               0
GRID*               2431               01.1000000000E+010.0000000000E+00+
*       -1.363157895E+01               0
GRID*               2432               01.2000000000E+010.0000000000E+00+
*       -1.460526316E+01               0
GRID*               2433               01.1000000000E+010.0000000000E+00+
*       -1.557894737E+01               0
GRID*               2434               01.2000000000E+010.0000000000E+00+
*       -1.655263158E+01               0
GRID*               2435               01.0000000000E+010.0000000000E+00+
*       1.6552631579E+01               0
GRID*               2436               09.0000000000E+000.0000000000E+00+
*       1.5578947368E+01               0
GRID*               2437               01.0000000000E+010.0000000000E+00+
*       1.4605263158E+01               0
GRID*               2438               09.0000000000E+000.0000000000E+00+
*       1.3631578947E+01               0
GRID*               2439               01.0000000000E+010.0000000000E+00+
*       1.2657894737E+01               0
GRID*               2440               09.0000000000E+000.0000000000E+00+
*       1.1684210526E+01               0
GRID*               2441               01.0000000000E+010.0000000000E+00+
*       1.0710526316E+01               0
GRID*               2442               09.0000000000E+000.0000000000E+00+
*       9.7368421053E+00               0
GRID*               2443               01.0000000000E+010.0000000000E+00+
*       8.7631578947E+00               0
GRID*               2444               09.0000000000E+000.0000000000E+00+
*       7.7894736842E+00               0
GRID*               2445               01.0000000000E+010.0000000000E+00+
*       6.8157894737E+00               0
GRID*               2446               09.0000000000E+000.0000000000E+00+
*       5.8421052632E+00               0
GRID*               2447               01.0000000000E+010.0000000000E+00+
*       4.8684210526E+00               0
GRID*               2448               09.0000000000E+000.0000000000E+00+
*       3.8947368421E+00               0
GRID*               2449               01.0000000000E+010.0000000000E+00+
*       2.9210526316E+00               0
GRID*               2450               09.0000000000E+000.0000000000E+00+
*       1.9473684211E+00               0
GRID*               2451               01.0000000000E+010.0000000000E+00+
*       9.7368421053E-01               0
GRID*               2452               09.0000000000E+000.0000000000E+00+
*       0.0000000000E+00               0
GRID*               2453               01.0000000000E+010.0000000000E+00+
*       -9.736842105E-01               0
GRID*               2454               09.0000000000E+000.0000000000E+00+
*       -1.947368421E+00               0
GRID*               2455               01.0000000000E+010.0000000000E+00+
*       -2.921052632E+00               0
GRID*               2456               09.0000000000E+000.0000000000E+00+
*       -3.894736842E+00               0
GRID*               2457               01.0000000000E+010.0000000000E+00+
*       -4.868421053E+00               0
GRID*               2458               09.0000000000E+000.0000000000E+00+
*       -5.842105263E+00               0
GRID*               2459               01.0000000000E+010.0000000000E+00+
*       -6.815789474E+00               0
GRID*               2460               09.0000000000E+000.0000000000E+00+
*       -7.789473684E+00               0
GRID*               2461               01.0000000000E+010.0000000000E+00+
*       -8.763157895E+00               0
GRID*               2462               09.0000000000E+000.0000000000E+00+
*       -9.736842105E+00               0
GRID*               2463               01.0000000000E+010.0000000000E+00+
*       -1.071052632E+01               0
GRID*               2464               09.0000000000E+000.0000000000E+00+
*       -1.168421053E+01               0
GRID*               2465               01.0000000000E+010.0000000000E+00+
*       -1.265789474E+01               0
GRID*               2466               09.0000000000E+000.0000000000E+00+
*       -1.363157895E+01               0
GRID*               2467               01.0000000000E+010.0000000000E+00+
*       -1.460526316E+01               0
GRID*               2468               09.0000000000E+000.0000000000E+00+
*       -1.557894737E+01               0
GRID*               2469               01.0000000000E+010.0000000000E+00+
*       -1.655263158E+01               0
GRID*               2470               08.0000000000E+000.0000000000E+00+
*       1.6552631579E+01               0
GRID*               2471               07.0000000000E+000.0000000000E+00+
*       1.5578947368E+01               0
GRID*               2472               08.0000000000E+000.0000000000E+00+
*       1.4605263158E+01               0
GRID*               2473               07.0000000000E+000.0000000000E+00+
*       1.3631578947E+01               0
GRID*               2474               08.0000000000E+000.0000000000E+00+
*       1.2657894737E+01               0
GRID*               2475               07.0000000000E+000.0000000000E+00+
*       1.1684210526E+01               0
GRID*               2476               08.0000000000E+000.0000000000E+00+
*       1.0710526316E+01               0
GRID*               2477               07.0000000000E+000.0000000000E+00+
*       9.7368421053E+00               0
GRID*               2478               08.0000000000E+000.0000000000E+00+
*       8.7631578947E+00               0
GRID*               2479               07.0000000000E+000.0000000000E+00+
*       7.7894736842E+00               0
GRID*               2480               08.0000000000E+000.0000000000E+00+
*       6.8157894737E+00               0
GRID*               2481               07.0000000000E+000.0000000000E+00+
*       5.8421052632E+00               0
GRID*               2482               08.0000000000E+000.0000000000E+00+
*       4.8684210526E+00               0
GRID*               2483               07.0000000000E+000.0000000000E+00+
*       3.8947368421E+00               0
GRID*               2484               08.0000000000E+000.0000000000E+00+
*       2.9210526316E+00               0
GRID*               2485               07.0000000000E+000.0000000000E+00+
*       1.9473684211E+00               0
GRID*               2486               08.0000000000E+000.0000000000E+00+
*       9.7368421053E-01               0
GRID*               2487               07.0000000000E+000.0000000000E+00+
*       -2.327998905E-15               0
GRID*               2488               08.0000000000E+000.0000000000E+00+
*       -9.736842105E-01               0
GRID*               2489               07.0000000000E+000.0000000000E+00+
*       -1.947368421E+00               0
GRID*               2490               08.0000000000E+000.0000000000E+00+
*       -2.921052632E+00               0
GRID*               2491               07.0000000000E+000.0000000000E+00+
*       -3.894736842E+00               0
GRID*               2492               08.0000000000E+000.0000000000E+00+
*       -4.868421053E+00               0
GRID*               2493               07.0000000000E+000.0000000000E+00+
*       -5.842105263E+00               0
GRID*               2494               08.0000000000E+000.0000000000E+00+
*       -6.815789474E+00               0
GRID*               2495               07.0000000000E+000.0000000000E+00+
*       -7.789473684E+00               0
GRID*               2496               08.0000000000E+000.0000000000E+00+
*       -8.763157895E+00               0
GRID*               2497               07.0000000000E+000.0000000000E+00+
*       -9.736842105E+00               0
GRID*               2498               08.0000000000E+000.0000000000E+00+
*       -1.071052632E+01               0
GRID*               2499               07.0000000000E+000.0000000000E+00+
*       -1.168421053E+01               0
GRID*               2500               08.0000000000E+000.0000000000E+00+
*       -1.265789474E+01               0
GRID*               2501               07.0000000000E+000.0000000000E+00+
*       -1.363157895E+01               0
GRID*               2502               08.0000000000E+000.0000000000E+00+
*       -1.460526316E+01               0
GRID*               2503               07.0000000000E+000.0000000000E+00+
*       -1.557894737E+01               0
GRID*               2504               08.0000000000E+000.0000000000E+00+
*       -1.655263158E+01               0
GRID*               2505               06.0000000000E+000.0000000000E+00+
*       1.6552631579E+01               0
GRID*               2506               05.0000000000E+000.0000000000E+00+
*       1.5578947368E+01               0
GRID*               2507               06.0000000000E+000.0000000000E+00+
*       1.4605263158E+01               0
GRID*               2508               05.0000000000E+000.0000000000E+00+
*       1.3631578947E+01               0
GRID*               2509               06.0000000000E+000.0000000000E+00+
*       1.2657894737E+01               0
GRID*               2510               05.0000000000E+000.0000000000E+00+
*       1.1684210526E+01               0
GRID*               2511               06.0000000000E+000.0000000000E+00+
*       1.0710526316E+01               0
GRID*               2512               05.0000000000E+000.0000000000E+00+
*       9.7368421053E+00               0
GRID*               2513               06.0000000000E+000.0000000000E+00+
*       8.7631578947E+00               0
GRID*               2514               05.0000000000E+000.0000000000E+00+
*       7.7894736842E+00               0
GRID*               2515               06.0000000000E+000.0000000000E+00+
*       6.8157894737E+00               0
GRID*               2516               05.0000000000E+000.0000000000E+00+
*       5.8421052632E+00               0
GRID*               2517               06.0000000000E+000.0000000000E+00+
*       4.8684210526E+00               0
GRID*               2518               05.0000000000E+000.0000000000E+00+
*       3.8947368421E+00               0
GRID*               2519               06.0000000000E+000.0000000000E+00+
*       2.9210526316E+00               0
GRID*               2520               05.0000000000E+000.0000000000E+00+
*       1.9473684211E+00               0
GRID*               2521               06.0000000000E+000.0000000000E+00+
*       9.7368421053E-01               0
GRID*               2522               05.0000000000E+000.0000000000E+00+
*       -1.837072161E-15               0
GRID*               2523               06.0000000000E+000.0000000000E+00+
*       -9.736842105E-01               0
GRID*               2524               05.0000000000E+000.0000000000E+00+
*       -1.947368421E+00               0
GRID*               2525               06.0000000000E+000.0000000000E+00+
*       -2.921052632E+00               0
GRID*               2526               05.0000000000E+000.0000000000E+00+
*       -3.894736842E+00               0
GRID*               2527               06.0000000000E+000.0000000000E+00+
*       -4.868421053E+00               0
GRID*               2528               05.0000000000E+000.0000000000E+00+
*       -5.842105263E+00               0
GRID*               2529               06.0000000000E+000.0000000000E+00+
*       -6.815789474E+00               0
GRID*               2530               05.0000000000E+000.0000000000E+00+
*       -7.789473684E+00               0
GRID*               2531               06.0000000000E+000.0000000000E+00+
*       -8.763157895E+00               0
GRID*               2532               05.0000000000E+000.0000000000E+00+
*       -9.736842105E+00               0
GRID*               2533               06.0000000000E+000.0000000000E+00+
*       -1.071052632E+01               0
GRID*               2534               05.0000000000E+000.0000000000E+00+
*       -1.168421053E+01               0
GRID*               2535               06.0000000000E+000.0000000000E+00+
*       -1.265789474E+01               0
GRID*               2536               05.0000000000E+000.0000000000E+00+
*       -1.363157895E+01               0
GRID*               2537               06.0000000000E+000.0000000000E+00+
*       -1.460526316E+01               0
GRID*               2538               05.0000000000E+000.0000000000E+00+
*       -1.557894737E+01               0
GRID*               2539               06.0000000000E+000.0000000000E+00+
*       -1.655263158E+01               0
GRID*               2540               04.0000000000E+000.0000000000E+00+
*       1.6552631579E+01               0
GRID*               2541               03.0000000000E+000.0000000000E+00+
*       1.5578947368E+01               0
GRID*               2542               04.0000000000E+000.0000000000E+00+
*       1.4605263158E+01               0
GRID*               2543               03.0000000000E+000.0000000000E+00+
*       1.3631578947E+01               0
GRID*               2544               04.0000000000E+000.0000000000E+00+
*       1.2657894737E+01               0
GRID*               2545               03.0000000000E+000.0000000000E+00+
*       1.1684210526E+01               0
GRID*               2546               04.0000000000E+000.0000000000E+00+
*       1.0710526316E+01               0
GRID*               2547               03.0000000000E+000.0000000000E+00+
*       9.7368421053E+00               0
GRID*               2548               04.0000000000E+000.0000000000E+00+
*       8.7631578947E+00               0
GRID*               2549               03.0000000000E+000.0000000000E+00+
*       7.7894736842E+00               0
GRID*               2550               04.0000000000E+000.0000000000E+00+
*       6.8157894737E+00               0
GRID*               2551               03.0000000000E+000.0000000000E+00+
*       5.8421052632E+00               0
GRID*               2552               04.0000000000E+000.0000000000E+00+
*       4.8684210526E+00               0
GRID*               2553               03.0000000000E+000.0000000000E+00+
*       3.8947368421E+00               0
GRID*               2554               04.0000000000E+000.0000000000E+00+
*       2.9210526316E+00               0
GRID*               2555               03.0000000000E+000.0000000000E+00+
*       1.9473684211E+00               0
GRID*               2556               04.0000000000E+000.0000000000E+00+
*       9.7368421053E-01               0
GRID*               2557               03.0000000000E+000.0000000000E+00+
*       0.0000000000E+00               0
GRID*               2558               04.0000000000E+000.0000000000E+00+
*       -9.736842105E-01               0
GRID*               2559               03.0000000000E+000.0000000000E+00+
*       -1.947368421E+00               0
GRID*               2560               04.0000000000E+000.0000000000E+00+
*       -2.921052632E+00               0
GRID*               2561               03.0000000000E+000.0000000000E+00+
*       -3.894736842E+00               0
GRID*               2562               04.0000000000E+000.0000000000E+00+
*       -4.868421053E+00               0
GRID*               2563               03.0000000000E+000.0000000000E+00+
*       -5.842105263E+00               0
GRID*               2564               04.0000000000E+000.0000000000E+00+
*       -6.815789474E+00               0
GRID*               2565               03.0000000000E+000.0000000000E+00+
*       -7.789473684E+00               0
GRID*               2566               04.0000000000E+000.0000000000E+00+
*       -8.763157895E+00               0
GRID*               2567               03.0000000000E+000.0000000000E+00+
*       -9.736842105E+00               0
GRID*               2568               04.0000000000E+000.0000000000E+00+
*       -1.071052632E+01               0
GRID*               2569               03.0000000000E+000.0000000000E+00+
*       -1.168421053E+01               0
GRID*               2570               04.0000000000E+000.0000000000E+00+
*       -1.265789474E+01               0
GRID*               2571               03.0000000000E+000.0000000000E+00+
*       -1.363157895E+01               0
GRID*               2572               04.0000000000E+000.0000000000E+00+
*       -1.460526316E+01               0
GRID*               2573               03.0000000000E+000.0000000000E+00+
*       -1.557894737E+01               0
GRID*               2574               04.0000000000E+000.0000000000E+00+
*       -1.655263158E+01               0
GRID*               2575               02.0000000000E+000.0000000000E+00+
*       1.6552631579E+01               0
GRID*               2576               01.0000000000E+000.0000000000E+00+
*       1.5578947368E+01               0
GRID*               2577               02.0000000000E+000.0000000000E+00+
*       1.4605263158E+01               0
GRID*               2578               01.0000000000E+000.0000000000E+00+
*       1.3631578947E+01               0
GRID*               2579               02.0000000000E+000.0000000000E+00+
*       1.2657894737E+01               0
GRID*               2580               01.0000000000E+000.0000000000E+00+
*       1.1684210526E+01               0
GRID*               2581               02.0000000000E+000.0000000000E+00+
*       1.0710526316E+01               0
GRID*               2582               01.0000000000E+000.0000000000E+00+
*       9.7368421053E+00               0
GRID*               2583               02.0000000000E+000.0000000000E+00+
*       8.7631578947E+00               0
GRID*               2584               01.0000000000E+000.0000000000E+00+
*       7.7894736842E+00               0
GRID*               2585               02.0000000000E+000.0000000000E+00+
*       6.8157894737E+00               0
GRID*               2586               01.0000000000E+000.0000000000E+00+
*       5.8421052632E+00               0
GRID*               2587               02.0000000000E+000.0000000000E+00+
*       4.8684210526E+00               0
GRID*               2588               01.0000000000E+000.0000000000E+00+
*       3.8947368421E+00               0
GRID*               2589               02.0000000000E+000.0000000000E+00+
*       2.9210526316E+00               0
GRID*               2590               01.0000000000E+000.0000000000E+00+
*       1.9473684211E+00               0
GRID*               2591               02.0000000000E+000.0000000000E+00+
*       9.7368421053E-01               0
GRID*               2592               01.0000000000E+000.0000000000E+00+
*       0.0000000000E+00               0
GRID*               2593               02.0000000000E+000.0000000000E+00+
*       -9.736842105E-01               0
GRID*               2594               01.0000000000E+000.0000000000E+00+
*       -1.947368421E+00               0
GRID*               2595               02.0000000000E+000.0000000000E+00+
*       -2.921052632E+00               0
GRID*               2596               01.0000000000E+000.0000000000E+00+
*       -3.894736842E+00               0
GRID*               2597               02.0000000000E+000.0000000000E+00+
*       -4.868421053E+00               0
GRID*               2598               01.0000000000E+000.0000000000E+00+
*       -5.842105263E+00               0
GRID*               2599               02.0000000000E+000.0000000000E+00+
*       -6.815789474E+00               0
GRID*               2600               01.0000000000E+000.0000000000E+00+
*       -7.789473684E+00               0
GRID*               2601               02.0000000000E+000.0000000000E+00+
*       -8.763157895E+00               0
GRID*               2602               01.0000000000E+000.0000000000E+00+
*       -9.736842105E+00               0
GRID*               2603               02.0000000000E+000.0000000000E+00+
*       -1.071052632E+01               0
GRID*               2604               01.0000000000E+000.0000000000E+00+
*       -1.168421053E+01               0
GRID*               2605               02.0000000000E+000.0000000000E+00+
*       -1.265789474E+01               0
GRID*               2606               01.0000000000E+000.0000000000E+00+
*       -1.363157895E+01               0
GRID*               2607               02.0000000000E+000.0000000000E+00+
*       -1.460526316E+01               0
GRID*               2608               01.0000000000E+000.0000000000E+00+
*       -1.557894737E+01               0
GRID*               2609               02.0000000000E+000.0000000000E+00+
*       -1.655263158E+01               0
GRID*               2610               0-1.026956298E-150.0000000000E+00+
*       1.6552631579E+01               0
GRID*               2611               0-1.000000000E+000.0000000000E+00+
*       1.5578947368E+01               0
GRID*               2612               01.5543122345E-150.0000000000E+00+
*       1.4605263158E+01               0
GRID*               2613               0-1.000000000E+000.0000000000E+00+
*       1.3631578947E+01               0
GRID*               2614               02.9976021665E-150.0000000000E+00+
*       1.2657894737E+01               0
GRID*               2615               0-1.000000000E+000.0000000000E+00+
*       1.1684210526E+01               0
GRID*               2616               0-4.107825191E-150.0000000000E+00+
*       1.0710526316E+01               0
GRID*               2617               0-1.000000000E+000.0000000000E+00+
*       9.7368421053E+00               0
GRID*               2618               0-1.221245327E-150.0000000000E+00+
*       8.7631578947E+00               0
GRID*               2619               0-1.000000000E+000.0000000000E+00+
*       7.7894736842E+00               0
GRID*               2620               00.0000000000E+000.0000000000E+00+
*       6.8157894737E+00               0
GRID*               2621               0-1.000000000E+000.0000000000E+00+
*       5.8421052632E+00               0
GRID*               2622               0-4.718447855E-150.0000000000E+00+
*       4.8684210526E+00               0
GRID*               2623               0-1.000000000E+000.0000000000E+00+
*       3.8947368421E+00               0
GRID*               2624               01.2490009027E-150.0000000000E+00+
*       2.9210526316E+00               0
GRID*               2625               0-1.000000000E+000.0000000000E+00+
*       1.9473684211E+00               0
GRID*               2626               03.1120939159E-150.0000000000E+00+
*       9.7368421053E-01               0
GRID*               2627               0-1.000000000E+000.0000000000E+00+
*       0.0000000000E+00               0
GRID*               2628               0-3.112093916E-150.0000000000E+00+
*       -9.736842105E-01               0
GRID*               2629               0-1.000000000E+000.0000000000E+00+
*       -1.947368421E+00               0
GRID*               2630               01.9984014443E-150.0000000000E+00+
*       -2.921052632E+00               0
GRID*               2631               0-1.000000000E+000.0000000000E+00+
*       -3.894736842E+00               0
GRID*               2632               01.6653345369E-150.0000000000E+00+
*       -4.868421053E+00               0
GRID*               2633               0-1.000000000E+000.0000000000E+00+
*       -5.842105263E+00               0
GRID*               2634               05.2180482157E-150.0000000000E+00+
*       -6.815789474E+00               0
GRID*               2635               0-1.000000000E+000.0000000000E+00+
*       -7.789473684E+00               0
GRID*               2636               0-6.827871601E-150.0000000000E+00+
*       -8.763157895E+00               0
GRID*               2637               0-1.000000000E+000.0000000000E+00+
*       -9.736842105E+00               0
GRID*               2638               06.1617377867E-150.0000000000E+00+
*       -1.071052632E+01               0
GRID*               2639               0-1.000000000E+000.0000000000E+00+
*       -1.168421053E+01               0
GRID*               2640               00.0000000000E+000.0000000000E+00+
*       -1.265789474E+01               0
GRID*               2641               0-1.000000000E+000.0000000000E+00+
*       -1.363157895E+01               0
GRID*               2642               00.0000000000E+000.0000000000E+00+
*       -1.460526316E+01               0
GRID*               2643               0-1.000000000E+000.0000000000E+00+
*       -1.557894737E+01               0
GRID*               2644               00.0000000000E+000.0000000000E+00+
*       -1.655263158E+01               0
GRID*               2645               0-2.000000000E+000.0000000000E+00+
*       1.6552631579E+01               0
GRID*               2646               0-3.000000000E+000.0000000000E+00+
*       1.5578947368E+01               0
GRID*               2647               0-2.000000000E+000.0000000000E+00+
*       1.4605263158E+01               0
GRID*               2648               0-3.000000000E+000.0000000000E+00+
*       1.3631578947E+01               0
GRID*               2649               0-2.000000000E+000.0000000000E+00+
*       1.2657894737E+01               0
GRID*               2650               0-3.000000000E+000.0000000000E+00+
*       1.1684210526E+01               0
GRID*               2651               0-2.000000000E+000.0000000000E+00+
*       1.0710526316E+01               0
GRID*               2652               0-3.000000000E+000.0000000000E+00+
*       9.7368421053E+00               0
GRID*               2653               0-2.000000000E+000.0000000000E+00+
*       8.7631578947E+00               0
GRID*               2654               0-3.000000000E+000.0000000000E+00+
*       7.7894736842E+00               0
GRID*               2655               0-2.000000000E+000.0000000000E+00+
*       6.8157894737E+00               0
GRID*               2656               0-3.000000000E+000.0000000000E+00+
*       5.8421052632E+00               0
GRID*               2657               0-2.000000000E+000.0000000000E+00+
*       4.8684210526E+00               0
GRID*               2658               0-3.000000000E+000.0000000000E+00+
*       3.8947368421E+00               0
GRID*               2659               0-2.000000000E+000.0000000000E+00+
*       2.9210526316E+00               0
GRID*               2660               0-3.000000000E+000.0000000000E+00+
*       1.9473684211E+00               0
GRID*               2661               0-2.000000000E+000.0000000000E+00+
*       9.7368421053E-01               0
GRID*               2662               0-3.000000000E+000.0000000000E+00+
*       0.0000000000E+00               0
GRID*               2663               0-2.000000000E+000.0000000000E+00+
*       -9.736842105E-01               0
GRID*               2664               0-3.000000000E+000.0000000000E+00+
*       -1.947368421E+00               0
GRID*               2665               0-2.000000000E+000.0000000000E+00+
*       -2.921052632E+00               0
GRID*               2666               0-3.000000000E+000.0000000000E+00+
*       -3.894736842E+00               0
GRID*               2667               0-2.000000000E+000.0000000000E+00+
*       -4.868421053E+00               0
GRID*               2668               0-3.000000000E+000.0000000000E+00+
*       -5.842105263E+00               0
GRID*               2669               0-2.000000000E+000.0000000000E+00+
*       -6.815789474E+00               0
GRID*               2670               0-3.000000000E+000.0000000000E+00+
*       -7.789473684E+00               0
GRID*               2671               0-2.000000000E+000.0000000000E+00+
*       -8.763157895E+00               0
GRID*               2672               0-3.000000000E+000.0000000000E+00+
*       -9.736842105E+00               0
GRID*               2673               0-2.000000000E+000.0000000000E+00+
*       -1.071052632E+01               0
GRID*               2674               0-3.000000000E+000.0000000000E+00+
*       -1.168421053E+01               0
GRID*               2675               0-2.000000000E+000.0000000000E+00+
*       -1.265789474E+01               0
GRID*               2676               0-3.000000000E+000.0000000000E+00+
*       -1.363157895E+01               0
GRID*               2677               0-2.000000000E+000.0000000000E+00+
*       -1.460526316E+01               0
GRID*               2678               0-3.000000000E+000.0000000000E+00+
*       -1.557894737E+01               0
GRID*               2679               0-2.000000000E+000.0000000000E+00+
*       -1.655263158E+01               0
GRID*               2680               0-4.000000000E+000.0000000000E+00+
*       1.6552631579E+01               0
GRID*               2681               0-5.000000000E+000.0000000000E+00+
*       1.5578947368E+01               0
GRID*               2682               0-4.000000000E+000.0000000000E+00+
*       1.4605263158E+01               0
GRID*               2683               0-5.000000000E+000.0000000000E+00+
*       1.3631578947E+01               0
GRID*               2684               0-4.000000000E+000.0000000000E+00+
*       1.2657894737E+01               0
GRID*               2685               0-5.000000000E+000.0000000000E+00+
*       1.1684210526E+01               0
GRID*               2686               0-4.000000000E+000.0000000000E+00+
*       1.0710526316E+01               0
GRID*               2687               0-5.000000000E+000.0000000000E+00+
*       9.7368421053E+00               0
GRID*               2688               0-4.000000000E+000.0000000000E+00+
*       8.7631578947E+00               0
GRID*               2689               0-5.000000000E+000.0000000000E+00+
*       7.7894736842E+00               0
GRID*               2690               0-4.000000000E+000.0000000000E+00+
*       6.8157894737E+00               0
GRID*               2691               0-5.000000000E+000.0000000000E+00+
*       5.8421052632E+00               0
GRID*               2692               0-4.000000000E+000.0000000000E+00+
*       4.8684210526E+00               0
GRID*               2693               0-5.000000000E+000.0000000000E+00+
*       3.8947368421E+00               0
GRID*               2694               0-4.000000000E+000.0000000000E+00+
*       2.9210526316E+00               0
GRID*               2695               0-5.000000000E+000.0000000000E+00+
*       1.9473684211E+00               0
GRID*               2696               0-4.000000000E+000.0000000000E+00+
*       9.7368421053E-01               0
GRID*               2697               0-5.000000000E+000.0000000000E+00+
*       0.0000000000E+00               0
GRID*               2698               0-4.000000000E+000.0000000000E+00+
*       -9.736842105E-01               0
GRID*               2699               0-5.000000000E+000.0000000000E+00+
*       -1.947368421E+00               0
GRID*               2700               0-4.000000000E+000.0000000000E+00+
*       -2.921052632E+00               0
GRID*               2701               0-5.000000000E+000.0000000000E+00+
*       -3.894736842E+00               0
GRID*               2702               0-4.000000000E+000.0000000000E+00+
*       -4.868421053E+00               0
GRID*               2703               0-5.000000000E+000.0000000000E+00+
*       -5.842105263E+00               0
GRID*               2704               0-4.000000000E+000.0000000000E+00+
*       -6.815789474E+00               0
GRID*               2705               0-5.000000000E+000.0000000000E+00+
*       -7.789473684E+00               0
GRID*               2706               0-4.000000000E+000.0000000000E+00+
*       -8.763157895E+00               0
GRID*               2707               0-5.000000000E+000.0000000000E+00+
*       -9.736842105E+00               0
GRID*               2708               0-4.000000000E+000.0000000000E+00+
*       -1.071052632E+01               0
GRID*               2709               0-5.000000000E+000.0000000000E+00+
*       -1.168421053E+01               0
GRID*               2710               0-4.000000000E+000.0000000000E+00+
*       -1.265789474E+01               0
GRID*               2711               0-5.000000000E+000.0000000000E+00+
*       -1.363157895E+01               0
GRID*               2712               0-4.000000000E+000.0000000000E+00+
*       -1.460526316E+01               0
GRID*               2713               0-5.000000000E+000.0000000000E+00+
*       -1.557894737E+01               0
GRID*               2714               0-4.000000000E+000.0000000000E+00+
*       -1.655263158E+01               0
GRID*               2715               0-6.000000000E+000.0000000000E+00+
*       1.6552631579E+01               0
GRID*               2716               0-7.000000000E+000.0000000000E+00+
*       1.5578947368E+01               0
GRID*               2717               0-6.000000000E+000.0000000000E+00+
*       1.4605263158E+01               0
GRID*               2718               0-7.000000000E+000.0000000000E+00+
*       1.3631578947E+01               0
GRID*               2719               0-6.000000000E+000.0000000000E+00+
*       1.2657894737E+01               0
GRID*               2720               0-7.000000000E+000.0000000000E+00+
*       1.1684210526E+01               0
GRID*               2721               0-6.000000000E+000.0000000000E+00+
*       1.0710526316E+01               0
GRID*               2722               0-7.000000000E+000.0000000000E+00+
*       9.7368421053E+00               0
GRID*               2723               0-6.000000000E+000.0000000000E+00+
*       8.7631578947E+00               0
GRID*               2724               0-7.000000000E+000.0000000000E+00+
*       7.7894736842E+00               0
GRID*               2725               0-6.000000000E+000.0000000000E+00+
*       6.8157894737E+00               0
GRID*               2726               0-7.000000000E+000.0000000000E+00+
*       5.8421052632E+00               0
GRID*               2727               0-6.000000000E+000.0000000000E+00+
*       4.8684210526E+00               0
GRID*               2728               0-7.000000000E+000.0000000000E+00+
*       3.8947368421E+00               0
GRID*               2729               0-6.000000000E+000.0000000000E+00+
*       2.9210526316E+00               0
GRID*               2730               0-7.000000000E+000.0000000000E+00+
*       1.9473684211E+00               0
GRID*               2731               0-6.000000000E+000.0000000000E+00+
*       9.7368421053E-01               0
GRID*               2732               0-7.000000000E+000.0000000000E+00+
*       2.3279989048E-15               0
GRID*               2733               0-6.000000000E+000.0000000000E+00+
*       -9.736842105E-01               0
GRID*               2734               0-7.000000000E+000.0000000000E+00+
*       -1.947368421E+00               0
GRID*               2735               0-6.000000000E+000.0000000000E+00+
*       -2.921052632E+00               0
GRID*               2736               0-7.000000000E+000.0000000000E+00+
*       -3.894736842E+00               0
GRID*               2737               0-6.000000000E+000.0000000000E+00+
*       -4.868421053E+00               0
GRID*               2738               0-7.000000000E+000.0000000000E+00+
*       -5.842105263E+00               0
GRID*               2739               0-6.000000000E+000.0000000000E+00+
*       -6.815789474E+00               0
GRID*               2740               0-7.000000000E+000.0000000000E+00+
*       -7.789473684E+00               0
GRID*               2741               0-6.000000000E+000.0000000000E+00+
*       -8.763157895E+00               0
GRID*               2742               0-7.000000000E+000.0000000000E+00+
*       -9.736842105E+00               0
GRID*               2743               0-6.000000000E+000.0000000000E+00+
*       -1.071052632E+01               0
GRID*               2744               0-7.000000000E+000.0000000000E+00+
*       -1.168421053E+01               0
GRID*               2745               0-6.000000000E+000.0000000000E+00+
*       -1.265789474E+01               0
GRID*               2746               0-7.000000000E+000.0000000000E+00+
*       -1.363157895E+01               0
GRID*               2747               0-6.000000000E+000.0000000000E+00+
*       -1.460526316E+01               0
GRID*               2748               0-7.000000000E+000.0000000000E+00+
*       -1.557894737E+01               0
GRID*               2749               0-6.000000000E+000.0000000000E+00+
*       -1.655263158E+01               0
GRID*               2750               0-8.000000000E+000.0000000000E+00+
*       1.6552631579E+01               0
GRID*               2751               0-9.000000000E+000.0000000000E+00+
*       1.5578947368E+01               0
GRID*               2752               0-8.000000000E+000.0000000000E+00+
*       1.4605263158E+01               0
GRID*               2753               0-9.000000000E+000.0000000000E+00+
*       1.3631578947E+01               0
GRID*               2754               0-8.000000000E+000.0000000000E+00+
*       1.2657894737E+01               0
GRID*               2755               0-9.000000000E+000.0000000000E+00+
*       1.1684210526E+01               0
GRID*               2756               0-8.000000000E+000.0000000000E+00+
*       1.0710526316E+01               0
GRID*               2757               0-9.000000000E+000.0000000000E+00+
*       9.7368421053E+00               0
GRID*               2758               0-8.000000000E+000.0000000000E+00+
*       8.7631578947E+00               0
GRID*               2759               0-9.000000000E+000.0000000000E+00+
*       7.7894736842E+00               0
GRID*               2760               0-8.000000000E+000.0000000000E+00+
*       6.8157894737E+00               0
GRID*               2761               0-9.000000000E+000.0000000000E+00+
*       5.8421052632E+00               0
GRID*               2762               0-8.000000000E+000.0000000000E+00+
*       4.8684210526E+00               0
GRID*               2763               0-9.000000000E+000.0000000000E+00+
*       3.8947368421E+00               0
GRID*               2764               0-8.000000000E+000.0000000000E+00+
*       2.9210526316E+00               0
GRID*               2765               0-9.000000000E+000.0000000000E+00+
*       1.9473684211E+00               0
GRID*               2766               0-8.000000000E+000.0000000000E+00+
*       9.7368421053E-01               0
GRID*               2767               0-9.000000000E+000.0000000000E+00+
*       0.0000000000E+00               0
GRID*               2768               0-8.000000000E+000.0000000000E+00+
*       -9.736842105E-01               0
GRID*               2769               0-9.000000000E+000.0000000000E+00+
*       -1.947368421E+00               0
GRID*               2770               0-8.000000000E+000.0000000000E+00+
*       -2.921052632E+00               0
GRID*               2771               0-9.000000000E+000.0000000000E+00+
*       -3.894736842E+00               0
GRID*               2772               0-8.000000000E+000.0000000000E+00+
*       -4.868421053E+00               0
GRID*               2773               0-9.000000000E+000.0000000000E+00+
*       -5.842105263E+00               0
GRID*               2774               0-8.000000000E+000.0000000000E+00+
*       -6.815789474E+00               0
GRID*               2775               0-9.000000000E+000.0000000000E+00+
*       -7.789473684E+00               0
GRID*               2776               0-8.000000000E+000.0000000000E+00+
*       -8.763157895E+00               0
GRID*               2777               0-9.000000000E+000.0000000000E+00+
*       -9.736842105E+00               0
GRID*               2778               0-8.000000000E+000.0000000000E+00+
*       -1.071052632E+01               0
GRID*               2779               0-9.000000000E+000.0000000000E+00+
*       -1.168421053E+01               0
GRID*               2780               0-8.000000000E+000.0000000000E+00+
*       -1.265789474E+01               0
GRID*               2781               0-9.000000000E+000.0000000000E+00+
*       -1.363157895E+01               0
GRID*               2782               0-8.000000000E+000.0000000000E+00+
*       -1.460526316E+01               0
GRID*               2783               0-9.000000000E+000.0000000000E+00+
*       -1.557894737E+01               0
GRID*               2784               0-8.000000000E+000.0000000000E+00+
*       -1.655263158E+01               0
GRID*               2785               0-1.000000000E+010.0000000000E+00+
*       1.6552631579E+01               0
GRID*               2786               0-1.100000000E+010.0000000000E+00+
*       1.5578947368E+01               0
GRID*               2787               0-1.000000000E+010.0000000000E+00+
*       1.4605263158E+01               0
GRID*               2788               0-1.100000000E+010.0000000000E+00+
*       1.3631578947E+01               0
GRID*               2789               0-1.000000000E+010.0000000000E+00+
*       1.2657894737E+01               0
GRID*               2790               0-1.100000000E+010.0000000000E+00+
*       1.1684210526E+01               0
GRID*               2791               0-1.000000000E+010.0000000000E+00+
*       1.0710526316E+01               0
GRID*               2792               0-1.100000000E+010.0000000000E+00+
*       9.7368421053E+00               0
GRID*               2793               0-1.000000000E+010.0000000000E+00+
*       8.7631578947E+00               0
GRID*               2794               0-1.100000000E+010.0000000000E+00+
*       7.7894736842E+00               0
GRID*               2795               0-1.000000000E+010.0000000000E+00+
*       6.8157894737E+00               0
GRID*               2796               0-1.100000000E+010.0000000000E+00+
*       5.8421052632E+00               0
GRID*               2797               0-1.000000000E+010.0000000000E+00+
*       4.8684210526E+00               0
GRID*               2798               0-1.100000000E+010.0000000000E+00+
*       3.8947368421E+00               0
GRID*               2799               0-1.000000000E+010.0000000000E+00+
*       2.9210526316E+00               0
GRID*               2800               0-1.100000000E+010.0000000000E+00+
*       1.9473684211E+00               0
GRID*               2801               0-1.000000000E+010.0000000000E+00+
*       9.7368421053E-01               0
GRID*               2802               0-1.100000000E+010.0000000000E+00+
*       -1.935951399E-15               0
GRID*               2803               0-1.000000000E+010.0000000000E+00+
*       -9.736842105E-01               0
GRID*               2804               0-1.100000000E+010.0000000000E+00+
*       -1.947368421E+00               0
GRID*               2805               0-1.000000000E+010.0000000000E+00+
*       -2.921052632E+00               0
GRID*               2806               0-1.100000000E+010.0000000000E+00+
*       -3.894736842E+00               0
GRID*               2807               0-1.000000000E+010.0000000000E+00+
*       -4.868421053E+00               0
GRID*               2808               0-1.100000000E+010.0000000000E+00+
*       -5.842105263E+00               0
GRID*               2809               0-1.000000000E+010.0000000000E+00+
*       -6.815789474E+00               0
GRID*               2810               0-1.100000000E+010.0000000000E+00+
*       -7.789473684E+00               0
GRID*               2811               0-1.000000000E+010.0000000000E+00+
*       -8.763157895E+00               0
GRID*               2812               0-1.100000000E+010.0000000000E+00+
*       -9.736842105E+00               0
GRID*               2813               0-1.000000000E+010.0000000000E+00+
*       -1.071052632E+01               0
GRID*               2814               0-1.100000000E+010.0000000000E+00+
*       -1.168421053E+01               0
GRID*               2815               0-1.000000000E+010.0000000000E+00+
*       -1.265789474E+01               0
GRID*               2816               0-1.100000000E+010.0000000000E+00+
*       -1.363157895E+01               0
GRID*               2817               0-1.000000000E+010.0000000000E+00+
*       -1.460526316E+01               0
GRID*               2818               0-1.100000000E+010.0000000000E+00+
*       -1.557894737E+01               0
GRID*               2819               0-1.000000000E+010.0000000000E+00+
*       -1.655263158E+01               0
GRID*               2820               0-1.200000000E+010.0000000000E+00+
*       1.6552631579E+01               0
GRID*               2821               0-1.300000000E+010.0000000000E+00+
*       1.5578947368E+01               0
GRID*               2822               0-1.200000000E+010.0000000000E+00+
*       1.4605263158E+01               0
GRID*               2823               0-1.300000000E+010.0000000000E+00+
*       1.3631578947E+01               0
GRID*               2824               0-1.200000000E+010.0000000000E+00+
*       1.2657894737E+01               0
GRID*               2825               0-1.300000000E+010.0000000000E+00+
*       1.1684210526E+01               0
GRID*               2826               0-1.200000000E+010.0000000000E+00+
*       1.0710526316E+01               0
GRID*               2827               0-1.300000000E+010.0000000000E+00+
*       9.7368421053E+00               0
GRID*               2828               0-1.200000000E+010.0000000000E+00+
*       8.7631578947E+00               0
GRID*               2829               0-1.300000000E+010.0000000000E+00+
*       7.7894736842E+00               0
GRID*               2830               0-1.200000000E+010.0000000000E+00+
*       6.8157894737E+00               0
GRID*               2831               0-1.300000000E+010.0000000000E+00+
*       5.8421052632E+00               0
GRID*               2832               0-1.200000000E+010.0000000000E+00+
*       4.8684210526E+00               0
GRID*               2833               0-1.300000000E+010.0000000000E+00+
*       3.8947368421E+00               0
GRID*               2834               0-1.200000000E+010.0000000000E+00+
*       2.9210526316E+00               0
GRID*               2835               0-1.300000000E+010.0000000000E+00+
*       1.9473684211E+00               0
GRID*               2836               0-1.200000000E+010.0000000000E+00+
*       9.7368421053E-01               0
GRID*               2837               0-1.300000000E+010.0000000000E+00+
*       0.0000000000E+00               0
GRID*               2838               0-1.200000000E+010.0000000000E+00+
*       -9.736842105E-01               0
GRID*               2839               0-1.300000000E+010.0000000000E+00+
*       -1.947368421E+00               0
GRID*               2840               0-1.200000000E+010.0000000000E+00+
*       -2.921052632E+00               0
GRID*               2841               0-1.300000000E+010.0000000000E+00+
*       -3.894736842E+00               0
GRID*               2842               0-1.200000000E+010.0000000000E+00+
*       -4.868421053E+00               0
GRID*               2843               0-1.300000000E+010.0000000000E+00+
*       -5.842105263E+00               0
GRID*               2844               0-1.200000000E+010.0000000000E+00+
*       -6.815789474E+00               0
GRID*               2845               0-1.300000000E+010.0000000000E+00+
*       -7.789473684E+00               0
GRID*               2846               0-1.200000000E+010.0000000000E+00+
*       -8.763157895E+00               0
GRID*               2847               0-1.300000000E+010.0000000000E+00+
*       -9.736842105E+00               0
GRID*               2848               0-1.200000000E+010.0000000000E+00+
*       -1.071052632E+01               0
GRID*               2849               0-1.300000000E+010.0000000000E+00+
*       -1.168421053E+01               0
GRID*               2850               0-1.200000000E+010.0000000000E+00+
*       -1.265789474E+01               0
GRID*               2851               0-1.300000000E+010.0000000000E+00+
*       -1.363157895E+01               0
GRID*               2852               0-1.200000000E+010.0000000000E+00+
*       -1.460526316E+01               0
GRID*               2853               0-1.300000000E+010.0000000000E+00+
*       -1.557894737E+01               0
GRID*               2854               0-1.200000000E+010.0000000000E+00+
*       -1.655263158E+01               0
GRID*               2855               0-1.400000000E+010.0000000000E+00+
*       1.6552631579E+01               0
GRID*               2856               0-1.500000000E+010.0000000000E+00+
*       1.5578947368E+01               0
GRID*               2857               0-1.400000000E+010.0000000000E+00+
*       1.4605263158E+01               0
GRID*               2858               0-1.500000000E+010.0000000000E+00+
*       1.3631578947E+01               0
GRID*               2859               0-1.400000000E+010.0000000000E+00+
*       1.2657894737E+01               0
GRID*               2860               0-1.500000000E+010.0000000000E+00+
*       1.1684210526E+01               0
GRID*               2861               0-1.400000000E+010.0000000000E+00+
*       1.0710526316E+01               0
GRID*               2862               0-1.500000000E+010.0000000000E+00+
*       9.7368421053E+00               0
GRID*               2863               0-1.400000000E+010.0000000000E+00+
*       8.7631578947E+00               0
GRID*               2864               0-1.500000000E+010.0000000000E+00+
*       7.7894736842E+00               0
GRID*               2865               0-1.400000000E+010.0000000000E+00+
*       6.8157894737E+00               0
GRID*               2866               0-1.500000000E+010.0000000000E+00+
*       5.8421052632E+00               0
GRID*               2867               0-1.400000000E+010.0000000000E+00+
*       4.8684210526E+00               0
GRID*               2868               0-1.500000000E+010.0000000000E+00+
*       3.8947368421E+00               0
GRID*               2869               0-1.400000000E+010.0000000000E+00+
*       2.9210526316E+00               0
GRID*               2870               0-1.500000000E+010.0000000000E+00+
*       1.9473684211E+00               0
GRID*               2871               0-1.400000000E+010.0000000000E+00+
*       9.7368421053E-01               0
GRID*               2872               0-1.500000000E+010.0000000000E+00+
*       0.0000000000E+00               0
GRID*               2873               0-1.400000000E+010.0000000000E+00+
*       -9.736842105E-01               0
GRID*               2874               0-1.500000000E+010.0000000000E+00+
*       -1.947368421E+00               0
GRID*               2875               0-1.400000000E+010.0000000000E+00+
*       -2.921052632E+00               0
GRID*               2876               0-1.500000000E+010.0000000000E+00+
*       -3.894736842E+00               0
GRID*               2877               0-1.400000000E+010.0000000000E+00+
*       -4.868421053E+00               0
GRID*               2878               0-1.500000000E+010.0000000000E+00+
*       -5.842105263E+00               0
GRID*               2879               0-1.400000000E+010.0000000000E+00+
*       -6.815789474E+00               0
GRID*               2880               0-1.500000000E+010.0000000000E+00+
*       -7.789473684E+00               0
GRID*               2881               0-1.400000000E+010.0000000000E+00+
*       -8.763157895E+00               0
GRID*               2882               0-1.500000000E+010.0000000000E+00+
*       -9.736842105E+00               0
GRID*               2883               0-1.400000000E+010.0000000000E+00+
*       -1.071052632E+01               0
GRID*               2884               0-1.500000000E+010.0000000000E+00+
*       -1.168421053E+01               0
GRID*               2885               0-1.400000000E+010.0000000000E+00+
*       -1.265789474E+01               0
GRID*               2886               0-1.500000000E+010.0000000000E+00+
*       -1.363157895E+01               0
GRID*               2887               0-1.400000000E+010.0000000000E+00+
*       -1.460526316E+01               0
GRID*               2888               0-1.500000000E+010.0000000000E+00+
*       -1.557894737E+01               0
GRID*               2889               0-1.400000000E+010.0000000000E+00+
*       -1.655263158E+01               0
GRID*               2890               0-1.600000000E+010.0000000000E+00+
*       1.6552631579E+01               0
GRID*               2891               0-1.700000000E+010.0000000000E+00+
*       1.5578947368E+01               0
GRID*               2892               0-1.600000000E+010.0000000000E+00+
*       1.4605263158E+01               0
GRID*               2893               0-1.700000000E+010.0000000000E+00+
*       1.3631578947E+01               0
GRID*               2894               0-1.600000000E+010.0000000000E+00+
*       1.2657894737E+01               0
GRID*               2895               0-1.700000000E+010.0000000000E+00+
*       1.1684210526E+01               0
GRID*               2896               0-1.600000000E+010.0000000000E+00+
*       1.0710526316E+01               0
GRID*               2897               0-1.700000000E+010.0000000000E+00+
*       9.7368421053E+00               0
GRID*               2898               0-1.600000000E+010.0000000000E+00+
*       8.7631578947E+00               0
GRID*               2899               0-1.700000000E+010.0000000000E+00+
*       7.7894736842E+00               0
GRID*               2900               0-1.600000000E+010.0000000000E+00+
*       6.8157894737E+00               0
GRID*               2901               0-1.700000000E+010.0000000000E+00+
*       5.8421052632E+00               0
GRID*               2902               0-1.600000000E+010.0000000000E+00+
*       4.8684210526E+00               0
GRID*               2903               0-1.700000000E+010.0000000000E+00+
*       3.8947368421E+00               0
GRID*               2904               0-1.600000000E+010.0000000000E+00+
*       2.9210526316E+00               0
GRID*               2905               0-1.700000000E+010.0000000000E+00+
*       1.9473684211E+00               0
GRID*               2906               0-1.600000000E+010.0000000000E+00+
*       9.7368421053E-01               0
GRID*               2907               0-1.700000000E+010.0000000000E+00+
*       0.0000000000E+00               0
GRID*               2908               0-1.600000000E+010.0000000000E+00+
*       -9.736842105E-01               0
GRID*               2909               0-1.700000000E+010.0000000000E+00+
*       -1.947368421E+00               0
GRID*               2910               0-1.600000000E+010.0000000000E+00+
*       -2.921052632E+00               0
GRID*               2911               0-1.700000000E+010.0000000000E+00+
*       -3.894736842E+00               0
GRID*               2912               0-1.600000000E+010.0000000000E+00+
*       -4.868421053E+00               0
GRID*               2913               0-1.700000000E+010.0000000000E+00+
*       -5.842105263E+00               0
GRID*               2914               0-1.600000000E+010.0000000000E+00+
*       -6.815789474E+00               0
GRID*               2915               0-1.700000000E+010.0000000000E+00+
*       -7.789473684E+00               0
GRID*               2916               0-1.600000000E+010.0000000000E+00+
*       -8.763157895E+00               0
GRID*               2917               0-1.700000000E+010.0000000000E+00+
*       -9.736842105E+00               0
GRID*               2918               0-1.600000000E+010.0000000000E+00+
*       -1.071052632E+01               0
GRID*               2919               0-1.700000000E+010.0000000000E+00+
*       -1.168421053E+01               0
GRID*               2920               0-1.600000000E+010.0000000000E+00+
*       -1.265789474E+01               0
GRID*               2921               0-1.700000000E+010.0000000000E+00+
*       -1.363157895E+01               0
GRID*               2922               0-1.600000000E+010.0000000000E+00+
*       -1.460526316E+01               0
GRID*               2923               0-1.700000000E+010.0000000000E+00+
*       -1.557894737E+01               0
GRID*               2924               0-1.600000000E+010.0000000000E+00+
*       -1.655263158E+01               0
GRID*               2925               0-1.800000000E+010.0000000000E+00+
*       1.6552631579E+01               0
GRID*               2926               0-1.900000000E+010.0000000000E+00+
*       1.5578947368E+01               0
GRID*               2927               0-1.800000000E+010.0000000000E+00+
*       1.4605263158E+01               0
GRID*               2928               0-1.900000000E+010.0000000000E+00+
*       1.3631578947E+01               0
GRID*               2929               0-1.800000000E+010.0000000000E+00+
*       1.2657894737E+01               0
GRID*               2930               0-1.900000000E+010.0000000000E+00+
*       1.1684210526E+01               0
GRID*               2931               0-1.800000000E+010.0000000000E+00+
*       1.0710526316E+01               0
GRID*               2932               0-1.900000000E+010.0000000000E+00+
*       9.7368421053E+00               0
GRID*               2933               0-1.800000000E+010.0000000000E+00+
*       8.7631578947E+00               0
GRID*               2934               0-1.900000000E+010.0000000000E+00+
*       7.7894736842E+00               0
GRID*               2935               0-1.800000000E+010.0000000000E+00+
*       6.8157894737E+00               0
GRID*               2936               0-1.900000000E+010.0000000000E+00+
*       5.8421052632E+00               0
GRID*               2937               0-1.800000000E+010.0000000000E+00+
*       4.8684210526E+00               0
GRID*               2938               0-1.900000000E+010.0000000000E+00+
*       3.8947368421E+00               0
GRID*               2939               0-1.800000000E+010.0000000000E+00+
*       2.9210526316E+00               0
GRID*               2940               0-1.900000000E+010.0000000000E+00+
*       1.9473684211E+00               0
GRID*               2941               0-1.800000000E+010.0000000000E+00+
*       9.7368421053E-01               0
GRID*               2942               0-1.900000000E+010.0000000000E+00+
*       -1.318389842E-15               0
GRID*               2943               0-1.800000000E+010.0000000000E+00+
*       -9.736842105E-01               0
GRID*               2944               0-1.900000000E+010.0000000000E+00+
*       -1.947368421E+00               0
GRID*               2945               0-1.800000000E+010.0000000000E+00+
*       -2.921052632E+00               0
GRID*               2946               0-1.900000000E+010.0000000000E+00+
*       -3.894736842E+00               0
GRID*               2947               0-1.800000000E+010.0000000000E+00+
*       -4.868421053E+00               0
GRID*               2948               0-1.900000000E+010.0000000000E+00+
*       -5.842105263E+00               0
GRID*               2949               0-1.800000000E+010.0000000000E+00+
*       -6.815789474E+00               0
GRID*               2950               0-1.900000000E+010.0000000000E+00+
*       -7.789473684E+00               0
GRID*               2951               0-1.800000000E+010.0000000000E+00+
*       -8.763157895E+00               0
GRID*               2952               0-1.900000000E+010.0000000000E+00+
*       -9.736842105E+00               0
GRID*               2953               0-1.800000000E+010.0000000000E+00+
*       -1.071052632E+01               0
GRID*               2954               0-1.900000000E+010.0000000000E+00+
*       -1.168421053E+01               0
GRID*               2955               0-1.800000000E+010.0000000000E+00+
*       -1.265789474E+01               0
GRID*               2956               0-1.900000000E+010.0000000000E+00+
*       -1.363157895E+01               0
GRID*               2957               0-1.800000000E+010.0000000000E+00+
*       -1.460526316E+01               0
GRID*               2958               0-1.900000000E+010.0000000000E+00+
*       -1.557894737E+01               0
GRID*               2959               0-1.800000000E+010.0000000000E+00+
*       -1.655263158E+01               0
GRID*               2960               0-2.000000000E+010.0000000000E+00+
*       1.6552631579E+01               0
GRID*               2961               0-2.100000000E+010.0000000000E+00+
*       1.5578947368E+01               0
GRID*               2962               0-2.000000000E+010.0000000000E+00+
*       1.4605263158E+01               0
GRID*               2963               0-2.100000000E+010.0000000000E+00+
*       1.3631578947E+01               0
GRID*               2964               0-2.000000000E+010.0000000000E+00+
*       1.2657894737E+01               0
GRID*               2965               0-2.100000000E+010.0000000000E+00+
*       1.1684210526E+01               0
GRID*               2966               0-2.000000000E+010.0000000000E+00+
*       1.0710526316E+01               0
GRID*               2967               0-2.100000000E+010.0000000000E+00+
*       9.7368421053E+00               0
GRID*               2968               0-2.000000000E+010.0000000000E+00+
*       8.7631578947E+00               0
GRID*               2969               0-2.100000000E+010.0000000000E+00+
*       7.7894736842E+00               0
GRID*               2970               0-2.000000000E+010.0000000000E+00+
*       6.8157894737E+00               0
GRID*               2971               0-2.100000000E+010.0000000000E+00+
*       5.8421052632E+00               0
GRID*               2972               0-2.000000000E+010.0000000000E+00+
*       4.8684210526E+00               0
GRID*               2973               0-2.100000000E+010.0000000000E+00+
*       3.8947368421E+00               0
GRID*               2974               0-2.000000000E+010.0000000000E+00+
*       2.9210526316E+00               0
GRID*               2975               0-2.100000000E+010.0000000000E+00+
*       1.9473684211E+00               0
GRID*               2976               0-2.000000000E+010.0000000000E+00+
*       9.7368421053E-01               0
GRID*               2977               0-2.100000000E+010.0000000000E+00+
*       0.0000000000E+00               0
GRID*               2978               0-2.000000000E+010.0000000000E+00+
*       -9.736842105E-01               0
GRID*               2979               0-2.100000000E+010.0000000000E+00+
*       -1.947368421E+00               0
GRID*               2980               0-2.000000000E+010.0000000000E+00+
*       -2.921052632E+00               0
GRID*               2981               0-2.100000000E+010.0000000000E+00+
*       -3.894736842E+00               0
GRID*               2982               0-2.000000000E+010.0000000000E+00+
*       -4.868421053E+00               0
GRID*               2983               0-2.100000000E+010.0000000000E+00+
*       -5.842105263E+00               0
GRID*               2984               0-2.000000000E+010.0000000000E+00+
*       -6.815789474E+00               0
GRID*               2985               0-2.100000000E+010.0000000000E+00+
*       -7.789473684E+00               0
GRID*               2986               0-2.000000000E+010.0000000000E+00+
*       -8.763157895E+00               0
GRID*               2987               0-2.100000000E+010.0000000000E+00+
*       -9.736842105E+00               0
GRID*               2988               0-2.000000000E+010.0000000000E+00+
*       -1.071052632E+01               0
GRID*               2989               0-2.100000000E+010.0000000000E+00+
*       -1.168421053E+01               0
GRID*               2990               0-2.000000000E+010.0000000000E+00+
*       -1.265789474E+01               0
GRID*               2991               0-2.100000000E+010.0000000000E+00+
*       -1.363157895E+01               0
GRID*               2992               0-2.000000000E+010.0000000000E+00+
*       -1.460526316E+01               0
GRID*               2993               0-2.100000000E+010.0000000000E+00+
*       -1.557894737E+01               0
GRID*               2994               0-2.000000000E+010.0000000000E+00+
*       -1.655263158E+01               0
GRID*               2995               0-2.200000000E+010.0000000000E+00+
*       1.6552631579E+01               0
GRID*               2996               0-2.300000000E+010.0000000000E+00+
*       1.5578947368E+01               0
GRID*               2997               0-2.200000000E+010.0000000000E+00+
*       1.4605263158E+01               0
GRID*               2998               0-2.300000000E+010.0000000000E+00+
*       1.3631578947E+01               0
GRID*               2999               0-2.200000000E+010.0000000000E+00+
*       1.2657894737E+01               0
GRID*               3000               0-2.300000000E+010.0000000000E+00+
*       1.1684210526E+01               0
GRID*               3001               0-2.200000000E+010.0000000000E+00+
*       1.0710526316E+01               0
GRID*               3002               0-2.300000000E+010.0000000000E+00+
*       9.7368421053E+00               0
GRID*               3003               0-2.200000000E+010.0000000000E+00+
*       8.7631578947E+00               0
GRID*               3004               0-2.300000000E+010.0000000000E+00+
*       7.7894736842E+00               0
GRID*               3005               0-2.200000000E+010.0000000000E+00+
*       6.8157894737E+00               0
GRID*               3006               0-2.300000000E+010.0000000000E+00+
*       5.8421052632E+00               0
GRID*               3007               0-2.200000000E+010.0000000000E+00+
*       4.8684210526E+00               0
GRID*               3008               0-2.300000000E+010.0000000000E+00+
*       3.8947368421E+00               0
GRID*               3009               0-2.200000000E+010.0000000000E+00+
*       2.9210526316E+00               0
GRID*               3010               0-2.300000000E+010.0000000000E+00+
*       1.9473684211E+00               0
GRID*               3011               0-2.200000000E+010.0000000000E+00+
*       9.7368421053E-01               0
GRID*               3012               0-2.300000000E+010.0000000000E+00+
*       -1.859623566E-15               0
GRID*               3013               0-2.200000000E+010.0000000000E+00+
*       -9.736842105E-01               0
GRID*               3014               0-2.300000000E+010.0000000000E+00+
*       -1.947368421E+00               0
GRID*               3015               0-2.200000000E+010.0000000000E+00+
*       -2.921052632E+00               0
GRID*               3016               0-2.300000000E+010.0000000000E+00+
*       -3.894736842E+00               0
GRID*               3017               0-2.200000000E+010.0000000000E+00+
*       -4.868421053E+00               0
GRID*               3018               0-2.300000000E+010.0000000000E+00+
*       -5.842105263E+00               0
GRID*               3019               0-2.200000000E+010.0000000000E+00+
*       -6.815789474E+00               0
GRID*               3020               0-2.300000000E+010.0000000000E+00+
*       -7.789473684E+00               0
GRID*               3021               0-2.200000000E+010.0000000000E+00+
*       -8.763157895E+00               0
GRID*               3022               0-2.300000000E+010.0000000000E+00+
*       -9.736842105E+00               0
GRID*               3023               0-2.200000000E+010.0000000000E+00+
*       -1.071052632E+01               0
GRID*               3024               0-2.300000000E+010.0000000000E+00+
*       -1.168421053E+01               0
GRID*               3025               0-2.200000000E+010.0000000000E+00+
*       -1.265789474E+01               0
GRID*               3026               0-2.300000000E+010.0000000000E+00+
*       -1.363157895E+01               0
GRID*               3027               0-2.200000000E+010.0000000000E+00+
*       -1.460526316E+01               0
GRID*               3028               0-2.300000000E+010.0000000000E+00+
*       -1.557894737E+01               0
GRID*               3029               0-2.200000000E+010.0000000000E+00+
*       -1.655263158E+01               0
GRID*               3030               0-2.400000000E+010.0000000000E+00+
*       1.6552631579E+01               0
GRID*               3031               0-2.500000000E+010.0000000000E+00+
*       1.5578947368E+01               0
GRID*               3032               0-2.400000000E+010.0000000000E+00+
*       1.4605263158E+01               0
GRID*               3033               0-2.500000000E+010.0000000000E+00+
*       1.3631578947E+01               0
GRID*               3034               0-2.400000000E+010.0000000000E+00+
*       1.2657894737E+01               0
GRID*               3035               0-2.500000000E+010.0000000000E+00+
*       1.1684210526E+01               0
GRID*               3036               0-2.400000000E+010.0000000000E+00+
*       1.0710526316E+01               0
GRID*               3037               0-2.500000000E+010.0000000000E+00+
*       9.7368421053E+00               0
GRID*               3038               0-2.400000000E+010.0000000000E+00+
*       8.7631578947E+00               0
GRID*               3039               0-2.500000000E+010.0000000000E+00+
*       7.7894736842E+00               0
GRID*               3040               0-2.400000000E+010.0000000000E+00+
*       6.8157894737E+00               0
GRID*               3041               0-2.500000000E+010.0000000000E+00+
*       5.8421052632E+00               0
GRID*               3042               0-2.400000000E+010.0000000000E+00+
*       4.8684210526E+00               0
GRID*               3043               0-2.500000000E+010.0000000000E+00+
*       3.8947368421E+00               0
GRID*               3044               0-2.400000000E+010.0000000000E+00+
*       2.9210526316E+00               0
GRID*               3045               0-2.500000000E+010.0000000000E+00+
*       1.9473684211E+00               0
GRID*               3046               0-2.400000000E+010.0000000000E+00+
*       9.7368421053E-01               0
GRID*               3047               0-2.500000000E+010.0000000000E+00+
*       0.0000000000E+00               0
GRID*               3048               0-2.400000000E+010.0000000000E+00+
*       -9.736842105E-01               0
GRID*               3049               0-2.500000000E+010.0000000000E+00+
*       -1.947368421E+00               0
GRID*               3050               0-2.400000000E+010.0000000000E+00+
*       -2.921052632E+00               0
GRID*               3051               0-2.500000000E+010.0000000000E+00+
*       -3.894736842E+00               0
GRID*               3052               0-2.400000000E+010.0000000000E+00+
*       -4.868421053E+00               0
GRID*               3053               0-2.500000000E+010.0000000000E+00+
*       -5.842105263E+00               0
GRID*               3054               0-2.400000000E+010.0000000000E+00+
*       -6.815789474E+00               0
GRID*               3055               0-2.500000000E+010.0000000000E+00+
*       -7.789473684E+00               0
GRID*               3056               0-2.400000000E+010.0000000000E+00+
*       -8.763157895E+00               0
GRID*               3057               0-2.500000000E+010.0000000000E+00+
*       -9.736842105E+00               0
GRID*               3058               0-2.400000000E+010.0000000000E+00+
*       -1.071052632E+01               0
GRID*               3059               0-2.500000000E+010.0000000000E+00+
*       -1.168421053E+01               0
GRID*               3060               0-2.400000000E+010.0000000000E+00+
*       -1.265789474E+01               0
GRID*               3061               0-2.500000000E+010.0000000000E+00+
*       -1.363157895E+01               0
GRID*               3062               0-2.400000000E+010.0000000000E+00+
*       -1.460526316E+01               0
GRID*               3063               0-2.500000000E+010.0000000000E+00+
*       -1.557894737E+01               0
GRID*               3064               0-2.400000000E+010.0000000000E+00+
*       -1.655263158E+01               0
GRID*               3065               0-2.600000000E+010.0000000000E+00+
*       1.6552631579E+01               0
GRID*               3066               0-2.700000000E+010.0000000000E+00+
*       1.5578947368E+01               0
GRID*               3067               0-2.600000000E+010.0000000000E+00+
*       1.4605263158E+01               0
GRID*               3068               0-2.700000000E+010.0000000000E+00+
*       1.3631578947E+01               0
GRID*               3069               0-2.600000000E+010.0000000000E+00+
*       1.2657894737E+01               0
GRID*               3070               0-2.700000000E+010.0000000000E+00+
*       1.1684210526E+01               0
GRID*               3071               0-2.600000000E+010.0000000000E+00+
*       1.0710526316E+01               0
GRID*               3072               0-2.700000000E+010.0000000000E+00+
*       9.7368421053E+00               0
GRID*               3073               0-2.600000000E+010.0000000000E+00+
*       8.7631578947E+00               0
GRID*               3074               0-2.700000000E+010.0000000000E+00+
*       7.7894736842E+00               0
GRID*               3075               0-2.600000000E+010.0000000000E+00+
*       6.8157894737E+00               0
GRID*               3076               0-2.700000000E+010.0000000000E+00+
*       5.8421052632E+00               0
GRID*               3077               0-2.600000000E+010.0000000000E+00+
*       4.8684210526E+00               0
GRID*               3078               0-2.700000000E+010.0000000000E+00+
*       3.8947368421E+00               0
GRID*               3079               0-2.600000000E+010.0000000000E+00+
*       2.9210526316E+00               0
GRID*               3080               0-2.700000000E+010.0000000000E+00+
*       1.9473684211E+00               0
GRID*               3081               0-2.600000000E+010.0000000000E+00+
*       9.7368421053E-01               0
GRID*               3082               0-2.700000000E+010.0000000000E+00+
*       4.1633363423E-15               0
GRID*               3083               0-2.600000000E+010.0000000000E+00+
*       -9.736842105E-01               0
GRID*               3084               0-2.700000000E+010.0000000000E+00+
*       -1.947368421E+00               0
GRID*               3085               0-2.600000000E+010.0000000000E+00+
*       -2.921052632E+00               0
GRID*               3086               0-2.700000000E+010.0000000000E+00+
*       -3.894736842E+00               0
GRID*               3087               0-2.600000000E+010.0000000000E+00+
*       -4.868421053E+00               0
GRID*               3088               0-2.700000000E+010.0000000000E+00+
*       -5.842105263E+00               0
GRID*               3089               0-2.600000000E+010.0000000000E+00+
*       -6.815789474E+00               0
GRID*               3090               0-2.700000000E+010.0000000000E+00+
*       -7.789473684E+00               0
GRID*               3091               0-2.600000000E+010.0000000000E+00+
*       -8.763157895E+00               0
GRID*               3092               0-2.700000000E+010.0000000000E+00+
*       -9.736842105E+00               0
GRID*               3093               0-2.600000000E+010.0000000000E+00+
*       -1.071052632E+01               0
GRID*               3094               0-2.700000000E+010.0000000000E+00+
*       -1.168421053E+01               0
GRID*               3095               0-2.600000000E+010.0000000000E+00+
*       -1.265789474E+01               0
GRID*               3096               0-2.700000000E+010.0000000000E+00+
*       -1.363157895E+01               0
GRID*               3097               0-2.600000000E+010.0000000000E+00+
*       -1.460526316E+01               0
GRID*               3098               0-2.700000000E+010.0000000000E+00+
*       -1.557894737E+01               0
GRID*               3099               0-2.600000000E+010.0000000000E+00+
*       -1.655263158E+01               0
GRID*               3100               0-2.800000000E+010.0000000000E+00+
*       1.6552631579E+01               0
GRID*               3101               0-2.900000000E+010.0000000000E+00+
*       1.5578947368E+01               0
GRID*               3102               0-2.800000000E+010.0000000000E+00+
*       1.4605263158E+01               0
GRID*               3103               0-2.900000000E+010.0000000000E+00+
*       1.3631578947E+01               0
GRID*               3104               0-2.800000000E+010.0000000000E+00+
*       1.2657894737E+01               0
GRID*               3105               0-2.900000000E+010.0000000000E+00+
*       1.1684210526E+01               0
GRID*               3106               0-2.800000000E+010.0000000000E+00+
*       1.0710526316E+01               0
GRID*               3107               0-2.900000000E+010.0000000000E+00+
*       9.7368421053E+00               0
GRID*               3108               0-2.800000000E+010.0000000000E+00+
*       8.7631578947E+00               0
GRID*               3109               0-2.900000000E+010.0000000000E+00+
*       7.7894736842E+00               0
GRID*               3110               0-2.800000000E+010.0000000000E+00+
*       6.8157894737E+00               0
GRID*               3111               0-2.900000000E+010.0000000000E+00+
*       5.8421052632E+00               0
GRID*               3112               0-2.800000000E+010.0000000000E+00+
*       4.8684210526E+00               0
GRID*               3113               0-2.900000000E+010.0000000000E+00+
*       3.8947368421E+00               0
GRID*               3114               0-2.800000000E+010.0000000000E+00+
*       2.9210526316E+00               0
GRID*               3115               0-2.900000000E+010.0000000000E+00+
*       1.9473684211E+00               0
GRID*               3116               0-2.800000000E+010.0000000000E+00+
*       9.7368421053E-01               0
GRID*               3117               0-2.900000000E+010.0000000000E+00+
*       3.7470027081E-15               0
GRID*               3118               0-2.800000000E+010.0000000000E+00+
*       -9.736842105E-01               0
GRID*               3119               0-2.900000000E+010.0000000000E+00+
*       -1.947368421E+00               0
GRID*               3120               0-2.800000000E+010.0000000000E+00+
*       -2.921052632E+00               0
GRID*               3121               0-2.900000000E+010.0000000000E+00+
*       -3.894736842E+00               0
GRID*               3122               0-2.800000000E+010.0000000000E+00+
*       -4.868421053E+00               0
GRID*               3123               0-2.900000000E+010.0000000000E+00+
*       -5.842105263E+00               0
GRID*               3124               0-2.800000000E+010.0000000000E+00+
*       -6.815789474E+00               0
GRID*               3125               0-2.900000000E+010.0000000000E+00+
*       -7.789473684E+00               0
GRID*               3126               0-2.800000000E+010.0000000000E+00+
*       -8.763157895E+00               0
GRID*               3127               0-2.900000000E+010.0000000000E+00+
*       -9.736842105E+00               0
GRID*               3128               0-2.800000000E+010.0000000000E+00+
*       -1.071052632E+01               0
GRID*               3129               0-2.900000000E+010.0000000000E+00+
*       -1.168421053E+01               0
GRID*               3130               0-2.800000000E+010.0000000000E+00+
*       -1.265789474E+01               0
GRID*               3131               0-2.900000000E+010.0000000000E+00+
*       -1.363157895E+01               0
GRID*               3132               0-2.800000000E+010.0000000000E+00+
*       -1.460526316E+01               0
GRID*               3133               0-2.900000000E+010.0000000000E+00+
*       -1.557894737E+01               0
GRID*               3134               0-2.800000000E+010.0000000000E+00+
*       -1.655263158E+01               0
GRID*               3135               0-3.000000000E+010.0000000000E+00+
*       1.6552631579E+01               0
GRID*               3136               0-3.100000000E+010.0000000000E+00+
*       1.5578947368E+01               0
GRID*               3137               0-3.000000000E+010.0000000000E+00+
*       1.4605263158E+01               0
GRID*               3138               0-3.100000000E+010.0000000000E+00+
*       1.3631578947E+01               0
GRID*               3139               0-3.000000000E+010.0000000000E+00+
*       1.2657894737E+01               0
GRID*               3140               0-3.100000000E+010.0000000000E+00+
*       1.1684210526E+01               0
GRID*               3141               0-3.000000000E+010.0000000000E+00+
*       1.0710526316E+01               0
GRID*               3142               0-3.100000000E+010.0000000000E+00+
*       9.7368421053E+00               0
GRID*               3143               0-3.000000000E+010.0000000000E+00+
*       8.7631578947E+00               0
GRID*               3144               0-3.100000000E+010.0000000000E+00+
*       7.7894736842E+00               0
GRID*               3145               0-3.000000000E+010.0000000000E+00+
*       6.8157894737E+00               0
GRID*               3146               0-3.100000000E+010.0000000000E+00+
*       5.8421052632E+00               0
GRID*               3147               0-3.000000000E+010.0000000000E+00+
*       4.8684210526E+00               0
GRID*               3148               0-3.100000000E+010.0000000000E+00+
*       3.8947368421E+00               0
GRID*               3149               0-3.000000000E+010.0000000000E+00+
*       2.9210526316E+00               0
GRID*               3150               0-3.100000000E+010.0000000000E+00+
*       1.9473684211E+00               0
GRID*               3151               0-3.000000000E+010.0000000000E+00+
*       9.7368421053E-01               0
GRID*               3152               0-3.100000000E+010.0000000000E+00+
*       0.0000000000E+00               0
GRID*               3153               0-3.000000000E+010.0000000000E+00+
*       -9.736842105E-01               0
GRID*               3154               0-3.100000000E+010.0000000000E+00+
*       -1.947368421E+00               0
GRID*               3155               0-3.000000000E+010.0000000000E+00+
*       -2.921052632E+00               0
GRID*               3156               0-3.100000000E+010.0000000000E+00+
*       -3.894736842E+00               0
GRID*               3157               0-3.000000000E+010.0000000000E+00+
*       -4.868421053E+00               0
GRID*               3158               0-3.100000000E+010.0000000000E+00+
*       -5.842105263E+00               0
GRID*               3159               0-3.000000000E+010.0000000000E+00+
*       -6.815789474E+00               0
GRID*               3160               0-3.100000000E+010.0000000000E+00+
*       -7.789473684E+00               0
GRID*               3161               0-3.000000000E+010.0000000000E+00+
*       -8.763157895E+00               0
GRID*               3162               0-3.100000000E+010.0000000000E+00+
*       -9.736842105E+00               0
GRID*               3163               0-3.000000000E+010.0000000000E+00+
*       -1.071052632E+01               0
GRID*               3164               0-3.100000000E+010.0000000000E+00+
*       -1.168421053E+01               0
GRID*               3165               0-3.000000000E+010.0000000000E+00+
*       -1.265789474E+01               0
GRID*               3166               0-3.100000000E+010.0000000000E+00+
*       -1.363157895E+01               0
GRID*               3167               0-3.000000000E+010.0000000000E+00+
*       -1.460526316E+01               0
GRID*               3168               0-3.100000000E+010.0000000000E+00+
*       -1.557894737E+01               0
GRID*               3169               0-3.000000000E+010.0000000000E+00+
*       -1.655263158E+01               0
GRID*               3170               0-3.200000000E+010.0000000000E+00+
*       1.6552631579E+01               0
GRID*               3171               0-3.300000000E+010.0000000000E+00+
*       1.5578947368E+01               0
GRID*               3172               0-3.200000000E+010.0000000000E+00+
*       1.4605263158E+01               0
GRID*               3173               0-3.300000000E+010.0000000000E+00+
*       1.3631578947E+01               0
GRID*               3174               0-3.200000000E+010.0000000000E+00+
*       1.2657894737E+01               0
GRID*               3175               0-3.300000000E+010.0000000000E+00+
*       1.1684210526E+01               0
GRID*               3176               0-3.200000000E+010.0000000000E+00+
*       1.0710526316E+01               0
GRID*               3177               0-3.300000000E+010.0000000000E+00+
*       9.7368421053E+00               0
GRID*               3178               0-3.200000000E+010.0000000000E+00+
*       8.7631578947E+00               0
GRID*               3179               0-3.300000000E+010.0000000000E+00+
*       7.7894736842E+00               0
GRID*               3180               0-3.200000000E+010.0000000000E+00+
*       6.8157894737E+00               0
GRID*               3181               0-3.300000000E+010.0000000000E+00+
*       5.8421052632E+00               0
GRID*               3182               0-3.200000000E+010.0000000000E+00+
*       4.8684210526E+00               0
GRID*               3183               0-3.300000000E+010.0000000000E+00+
*       3.8947368421E+00               0
GRID*               3184               0-3.200000000E+010.0000000000E+00+
*       2.9210526316E+00               0
GRID*               3185               0-3.300000000E+010.0000000000E+00+
*       1.9473684211E+00               0
GRID*               3186               0-3.200000000E+010.0000000000E+00+
*       9.7368421053E-01               0
GRID*               3187               0-3.300000000E+010.0000000000E+00+
*       0.0000000000E+00               0
GRID*               3188               0-3.200000000E+010.0000000000E+00+
*       -9.736842105E-01               0
GRID*               3189               0-3.300000000E+010.0000000000E+00+
*       -1.947368421E+00               0
GRID*               3190               0-3.200000000E+010.0000000000E+00+
*       -2.921052632E+00               0
GRID*               3191               0-3.300000000E+010.0000000000E+00+
*       -3.894736842E+00               0
GRID*               3192               0-3.200000000E+010.0000000000E+00+
*       -4.868421053E+00               0
GRID*               3193               0-3.300000000E+010.0000000000E+00+
*       -5.842105263E+00               0
GRID*               3194               0-3.200000000E+010.0000000000E+00+
*       -6.815789474E+00               0
GRID*               3195               0-3.300000000E+010.0000000000E+00+
*       -7.789473684E+00               0
GRID*               3196               0-3.200000000E+010.0000000000E+00+
*       -8.763157895E+00               0
GRID*               3197               0-3.300000000E+010.0000000000E+00+
*       -9.736842105E+00               0
GRID*               3198               0-3.200000000E+010.0000000000E+00+
*       -1.071052632E+01               0
GRID*               3199               0-3.300000000E+010.0000000000E+00+
*       -1.168421053E+01               0
GRID*               3200               0-3.200000000E+010.0000000000E+00+
*       -1.265789474E+01               0
GRID*               3201               0-3.300000000E+010.0000000000E+00+
*       -1.363157895E+01               0
GRID*               3202               0-3.200000000E+010.0000000000E+00+
*       -1.460526316E+01               0
GRID*               3203               0-3.300000000E+010.0000000000E+00+
*       -1.557894737E+01               0
GRID*               3204               0-3.200000000E+010.0000000000E+00+
*       -1.655263158E+01               0
GRID*               3205               0-3.400000000E+010.0000000000E+00+
*       1.6552631579E+01               0
GRID*               3206               0-3.500000000E+010.0000000000E+00+
*       1.5578947368E+01               0
GRID*               3207               0-3.400000000E+010.0000000000E+00+
*       1.4605263158E+01               0
GRID*               3208               0-3.500000000E+010.0000000000E+00+
*       1.3631578947E+01               0
GRID*               3209               0-3.400000000E+010.0000000000E+00+
*       1.2657894737E+01               0
GRID*               3210               0-3.500000000E+010.0000000000E+00+
*       1.1684210526E+01               0
GRID*               3211               0-3.400000000E+010.0000000000E+00+
*       1.0710526316E+01               0
GRID*               3212               0-3.500000000E+010.0000000000E+00+
*       9.7368421053E+00               0
GRID*               3213               0-3.400000000E+010.0000000000E+00+
*       8.7631578947E+00               0
GRID*               3214               0-3.500000000E+010.0000000000E+00+
*       7.7894736842E+00               0
GRID*               3215               0-3.400000000E+010.0000000000E+00+
*       6.8157894737E+00               0
GRID*               3216               0-3.500000000E+010.0000000000E+00+
*       5.8421052632E+00               0
GRID*               3217               0-3.400000000E+010.0000000000E+00+
*       4.8684210526E+00               0
GRID*               3218               0-3.500000000E+010.0000000000E+00+
*       3.8947368421E+00               0
GRID*               3219               0-3.400000000E+010.0000000000E+00+
*       2.9210526316E+00               0
GRID*               3220               0-3.500000000E+010.0000000000E+00+
*       1.9473684211E+00               0
GRID*               3221               0-3.400000000E+010.0000000000E+00+
*       9.7368421053E-01               0
GRID*               3222               0-3.500000000E+010.0000000000E+00+
*       -2.164934898E-15               0
GRID*               3223               0-3.400000000E+010.0000000000E+00+
*       -9.736842105E-01               0
GRID*               3224               0-3.500000000E+010.0000000000E+00+
*       -1.947368421E+00               0
GRID*               3225               0-3.400000000E+010.0000000000E+00+
*       -2.921052632E+00               0
GRID*               3226               0-3.500000000E+010.0000000000E+00+
*       -3.894736842E+00               0
GRID*               3227               0-3.400000000E+010.0000000000E+00+
*       -4.868421053E+00               0
GRID*               3228               0-3.500000000E+010.0000000000E+00+
*       -5.842105263E+00               0
GRID*               3229               0-3.400000000E+010.0000000000E+00+
*       -6.815789474E+00               0
GRID*               3230               0-3.500000000E+010.0000000000E+00+
*       -7.789473684E+00               0
GRID*               3231               0-3.400000000E+010.0000000000E+00+
*       -8.763157895E+00               0
GRID*               3232               0-3.500000000E+010.0000000000E+00+
*       -9.736842105E+00               0
GRID*               3233               0-3.400000000E+010.0000000000E+00+
*       -1.071052632E+01               0
GRID*               3234               0-3.500000000E+010.0000000000E+00+
*       -1.168421053E+01               0
GRID*               3235               0-3.400000000E+010.0000000000E+00+
*       -1.265789474E+01               0
GRID*               3236               0-3.500000000E+010.0000000000E+00+
*       -1.363157895E+01               0
GRID*               3237               0-3.400000000E+010.0000000000E+00+
*       -1.460526316E+01               0
GRID*               3238               0-3.500000000E+010.0000000000E+00+
*       -1.557894737E+01               0
GRID*               3239               0-3.400000000E+010.0000000000E+00+
*       -1.655263158E+01               0
GRID*               3240               0-3.600000000E+010.0000000000E+00+
*       1.6552631579E+01               0
GRID*               3241               0-3.700000000E+010.0000000000E+00+
*       1.5578947368E+01               0
GRID*               3242               0-3.600000000E+010.0000000000E+00+
*       1.4605263158E+01               0
GRID*               3243               0-3.700000000E+010.0000000000E+00+
*       1.3631578947E+01               0
GRID*               3244               0-3.600000000E+010.0000000000E+00+
*       1.2657894737E+01               0
GRID*               3245               0-3.700000000E+010.0000000000E+00+
*       1.1684210526E+01               0
GRID*               3246               0-3.600000000E+010.0000000000E+00+
*       1.0710526316E+01               0
GRID*               3247               0-3.700000000E+010.0000000000E+00+
*       9.7368421053E+00               0
GRID*               3248               0-3.600000000E+010.0000000000E+00+
*       8.7631578947E+00               0
GRID*               3249               0-3.700000000E+010.0000000000E+00+
*       7.7894736842E+00               0
GRID*               3250               0-3.600000000E+010.0000000000E+00+
*       6.8157894737E+00               0
GRID*               3251               0-3.700000000E+010.0000000000E+00+
*       5.8421052632E+00               0
GRID*               3252               0-3.600000000E+010.0000000000E+00+
*       4.8684210526E+00               0
GRID*               3253               0-3.700000000E+010.0000000000E+00+
*       3.8947368421E+00               0
GRID*               3254               0-3.600000000E+010.0000000000E+00+
*       2.9210526316E+00               0
GRID*               3255               0-3.700000000E+010.0000000000E+00+
*       1.9473684211E+00               0
GRID*               3256               0-3.600000000E+010.0000000000E+00+
*       9.7368421053E-01               0
GRID*               3257               0-3.700000000E+010.0000000000E+00+
*       0.0000000000E+00               0
GRID*               3258               0-3.600000000E+010.0000000000E+00+
*       -9.736842105E-01               0
GRID*               3259               0-3.700000000E+010.0000000000E+00+
*       -1.947368421E+00               0
GRID*               3260               0-3.600000000E+010.0000000000E+00+
*       -2.921052632E+00               0
GRID*               3261               0-3.700000000E+010.0000000000E+00+
*       -3.894736842E+00               0
GRID*               3262               0-3.600000000E+010.0000000000E+00+
*       -4.868421053E+00               0
GRID*               3263               0-3.700000000E+010.0000000000E+00+
*       -5.842105263E+00               0
GRID*               3264               0-3.600000000E+010.0000000000E+00+
*       -6.815789474E+00               0
GRID*               3265               0-3.700000000E+010.0000000000E+00+
*       -7.789473684E+00               0
GRID*               3266               0-3.600000000E+010.0000000000E+00+
*       -8.763157895E+00               0
GRID*               3267               0-3.700000000E+010.0000000000E+00+
*       -9.736842105E+00               0
GRID*               3268               0-3.600000000E+010.0000000000E+00+
*       -1.071052632E+01               0
GRID*               3269               0-3.700000000E+010.0000000000E+00+
*       -1.168421053E+01               0
GRID*               3270               0-3.600000000E+010.0000000000E+00+
*       -1.265789474E+01               0
GRID*               3271               0-3.700000000E+010.0000000000E+00+
*       -1.363157895E+01               0
GRID*               3272               0-3.600000000E+010.0000000000E+00+
*       -1.460526316E+01               0
GRID*               3273               0-3.700000000E+010.0000000000E+00+
*       -1.557894737E+01               0
GRID*               3274               0-3.600000000E+010.0000000000E+00+
*       -1.655263158E+01               0
GRID*               3275               0-3.800000000E+010.0000000000E+00+
*       1.6552631579E+01               0
GRID*               3276               0-3.900000000E+010.0000000000E+00+
*       1.5578947368E+01               0
GRID*               3277               0-3.800000000E+010.0000000000E+00+
*       1.4605263158E+01               0
GRID*               3278               0-3.900000000E+010.0000000000E+00+
*       1.3631578947E+01               0
GRID*               3279               0-3.800000000E+010.0000000000E+00+
*       1.2657894737E+01               0
GRID*               3280               0-3.900000000E+010.0000000000E+00+
*       1.1684210526E+01               0
GRID*               3281               0-3.800000000E+010.0000000000E+00+
*       1.0710526316E+01               0
GRID*               3282               0-3.900000000E+010.0000000000E+00+
*       9.7368421053E+00               0
GRID*               3283               0-3.800000000E+010.0000000000E+00+
*       8.7631578947E+00               0
GRID*               3284               0-3.900000000E+010.0000000000E+00+
*       7.7894736842E+00               0
GRID*               3285               0-3.800000000E+010.0000000000E+00+
*       6.8157894737E+00               0
GRID*               3286               0-3.900000000E+010.0000000000E+00+
*       5.8421052632E+00               0
GRID*               3287               0-3.800000000E+010.0000000000E+00+
*       4.8684210526E+00               0
GRID*               3288               0-3.900000000E+010.0000000000E+00+
*       3.8947368421E+00               0
GRID*               3289               0-3.800000000E+010.0000000000E+00+
*       2.9210526316E+00               0
GRID*               3290               0-3.900000000E+010.0000000000E+00+
*       1.9473684211E+00               0
GRID*               3291               0-3.800000000E+010.0000000000E+00+
*       9.7368421053E-01               0
GRID*               3292               0-3.900000000E+010.0000000000E+00+
*       0.0000000000E+00               0
GRID*               3293               0-3.800000000E+010.0000000000E+00+
*       -9.736842105E-01               0
GRID*               3294               0-3.900000000E+010.0000000000E+00+
*       -1.947368421E+00               0
GRID*               3295               0-3.800000000E+010.0000000000E+00+
*       -2.921052632E+00               0
GRID*               3296               0-3.900000000E+010.0000000000E+00+
*       -3.894736842E+00               0
GRID*               3297               0-3.800000000E+010.0000000000E+00+
*       -4.868421053E+00               0
GRID*               3298               0-3.900000000E+010.0000000000E+00+
*       -5.842105263E+00               0
GRID*               3299               0-3.800000000E+010.0000000000E+00+
*       -6.815789474E+00               0
GRID*               3300               0-3.900000000E+010.0000000000E+00+
*       -7.789473684E+00               0
GRID*               3301               0-3.800000000E+010.0000000000E+00+
*       -8.763157895E+00               0
GRID*               3302               0-3.900000000E+010.0000000000E+00+
*       -9.736842105E+00               0
GRID*               3303               0-3.800000000E+010.0000000000E+00+
*       -1.071052632E+01               0
GRID*               3304               0-3.900000000E+010.0000000000E+00+
*       -1.168421053E+01               0
GRID*               3305               0-3.800000000E+010.0000000000E+00+
*       -1.265789474E+01               0
GRID*               3306               0-3.900000000E+010.0000000000E+00+
*       -1.363157895E+01               0
GRID*               3307               0-3.800000000E+010.0000000000E+00+
*       -1.460526316E+01               0
GRID*               3308               0-3.900000000E+010.0000000000E+00+
*       -1.557894737E+01               0
GRID*               3309               0-3.800000000E+010.0000000000E+00+
*       -1.655263158E+01               0
GRID*               3310               0-4.000000000E+010.0000000000E+00+
*       1.6552631579E+01               0
GRID*               3311               0-4.100000000E+010.0000000000E+00+
*       1.5578947368E+01               0
GRID*               3312               0-4.000000000E+010.0000000000E+00+
*       1.4605263158E+01               0
GRID*               3313               0-4.100000000E+010.0000000000E+00+
*       1.3631578947E+01               0
GRID*               3314               0-4.000000000E+010.0000000000E+00+
*       1.2657894737E+01               0
GRID*               3315               0-4.100000000E+010.0000000000E+00+
*       1.1684210526E+01               0
GRID*               3316               0-4.000000000E+010.0000000000E+00+
*       1.0710526316E+01               0
GRID*               3317               0-4.100000000E+010.0000000000E+00+
*       9.7368421053E+00               0
GRID*               3318               0-4.000000000E+010.0000000000E+00+
*       8.7631578947E+00               0
GRID*               3319               0-4.100000000E+010.0000000000E+00+
*       7.7894736842E+00               0
GRID*               3320               0-4.000000000E+010.0000000000E+00+
*       6.8157894737E+00               0
GRID*               3321               0-4.100000000E+010.0000000000E+00+
*       5.8421052632E+00               0
GRID*               3322               0-4.000000000E+010.0000000000E+00+
*       4.8684210526E+00               0
GRID*               3323               0-4.100000000E+010.0000000000E+00+
*       3.8947368421E+00               0
GRID*               3324               0-4.000000000E+010.0000000000E+00+
*       2.9210526316E+00               0
GRID*               3325               0-4.100000000E+010.0000000000E+00+
*       1.9473684211E+00               0
GRID*               3326               0-4.000000000E+010.0000000000E+00+
*       9.7368421053E-01               0
GRID*               3327               0-4.100000000E+010.0000000000E+00+
*       0.0000000000E+00               0
GRID*               3328               0-4.000000000E+010.0000000000E+00+
*       -9.736842105E-01               0
GRID*               3329               0-4.100000000E+010.0000000000E+00+
*       -1.947368421E+00               0
GRID*               3330               0-4.000000000E+010.0000000000E+00+
*       -2.921052632E+00               0
GRID*               3331               0-4.100000000E+010.0000000000E+00+
*       -3.894736842E+00               0
GRID*               3332               0-4.000000000E+010.0000000000E+00+
*       -4.868421053E+00               0
GRID*               3333               0-4.100000000E+010.0000000000E+00+
*       -5.842105263E+00               0
GRID*               3334               0-4.000000000E+010.0000000000E+00+
*       -6.815789474E+00               0
GRID*               3335               0-4.100000000E+010.0000000000E+00+
*       -7.789473684E+00               0
GRID*               3336               0-4.000000000E+010.0000000000E+00+
*       -8.763157895E+00               0
GRID*               3337               0-4.100000000E+010.0000000000E+00+
*       -9.736842105E+00               0
GRID*               3338               0-4.000000000E+010.0000000000E+00+
*       -1.071052632E+01               0
GRID*               3339               0-4.100000000E+010.0000000000E+00+
*       -1.168421053E+01               0
GRID*               3340               0-4.000000000E+010.0000000000E+00+
*       -1.265789474E+01               0
GRID*               3341               0-4.100000000E+010.0000000000E+00+
*       -1.363157895E+01               0
GRID*               3342               0-4.000000000E+010.0000000000E+00+
*       -1.460526316E+01               0
GRID*               3343               0-4.100000000E+010.0000000000E+00+
*       -1.557894737E+01               0
GRID*               3344               0-4.000000000E+010.0000000000E+00+
*       -1.655263158E+01               0
GRID*               3345               0-4.200000000E+010.0000000000E+00+
*       1.6552631579E+01               0
GRID*               3346               0-4.300000000E+010.0000000000E+00+
*       1.5578947368E+01               0
GRID*               3347               0-4.200000000E+010.0000000000E+00+
*       1.4605263158E+01               0
GRID*               3348               0-4.300000000E+010.0000000000E+00+
*       1.3631578947E+01               0
GRID*               3349               0-4.200000000E+010.0000000000E+00+
*       1.2657894737E+01               0
GRID*               3350               0-4.300000000E+010.0000000000E+00+
*       1.1684210526E+01               0
GRID*               3351               0-4.200000000E+010.0000000000E+00+
*       1.0710526316E+01               0
GRID*               3352               0-4.300000000E+010.0000000000E+00+
*       9.7368421053E+00               0
GRID*               3353               0-4.200000000E+010.0000000000E+00+
*       8.7631578947E+00               0
GRID*               3354               0-4.300000000E+010.0000000000E+00+
*       7.7894736842E+00               0
GRID*               3355               0-4.200000000E+010.0000000000E+00+
*       6.8157894737E+00               0
GRID*               3356               0-4.300000000E+010.0000000000E+00+
*       5.8421052632E+00               0
GRID*               3357               0-4.200000000E+010.0000000000E+00+
*       4.8684210526E+00               0
GRID*               3358               0-4.300000000E+010.0000000000E+00+
*       3.8947368421E+00               0
GRID*               3359               0-4.200000000E+010.0000000000E+00+
*       2.9210526316E+00               0
GRID*               3360               0-4.300000000E+010.0000000000E+00+
*       1.9473684211E+00               0
GRID*               3361               0-4.200000000E+010.0000000000E+00+
*       9.7368421053E-01               0
GRID*               3362               0-4.300000000E+010.0000000000E+00+
*       1.8873791419E-15               0
GRID*               3363               0-4.200000000E+010.0000000000E+00+
*       -9.736842105E-01               0
GRID*               3364               0-4.300000000E+010.0000000000E+00+
*       -1.947368421E+00               0
GRID*               3365               0-4.200000000E+010.0000000000E+00+
*       -2.921052632E+00               0
GRID*               3366               0-4.300000000E+010.0000000000E+00+
*       -3.894736842E+00               0
GRID*               3367               0-4.200000000E+010.0000000000E+00+
*       -4.868421053E+00               0
GRID*               3368               0-4.300000000E+010.0000000000E+00+
*       -5.842105263E+00               0
GRID*               3369               0-4.200000000E+010.0000000000E+00+
*       -6.815789474E+00               0
GRID*               3370               0-4.300000000E+010.0000000000E+00+
*       -7.789473684E+00               0
GRID*               3371               0-4.200000000E+010.0000000000E+00+
*       -8.763157895E+00               0
GRID*               3372               0-4.300000000E+010.0000000000E+00+
*       -9.736842105E+00               0
GRID*               3373               0-4.200000000E+010.0000000000E+00+
*       -1.071052632E+01               0
GRID*               3374               0-4.300000000E+010.0000000000E+00+
*       -1.168421053E+01               0
GRID*               3375               0-4.200000000E+010.0000000000E+00+
*       -1.265789474E+01               0
GRID*               3376               0-4.300000000E+010.0000000000E+00+
*       -1.363157895E+01               0
GRID*               3377               0-4.200000000E+010.0000000000E+00+
*       -1.460526316E+01               0
GRID*               3378               0-4.300000000E+010.0000000000E+00+
*       -1.557894737E+01               0
GRID*               3379               0-4.200000000E+010.0000000000E+00+
*       -1.655263158E+01               0
GRID*               3380               0-4.400000000E+010.0000000000E+00+
*       1.6552631579E+01               0
GRID*               3381               0-4.500000000E+010.0000000000E+00+
*       1.5578947368E+01               0
GRID*               3382               0-4.400000000E+010.0000000000E+00+
*       1.4605263158E+01               0
GRID*               3383               0-4.500000000E+010.0000000000E+00+
*       1.3631578947E+01               0
GRID*               3384               0-4.400000000E+010.0000000000E+00+
*       1.2657894737E+01               0
GRID*               3385               0-4.500000000E+010.0000000000E+00+
*       1.1684210526E+01               0
GRID*               3386               0-4.400000000E+010.0000000000E+00+
*       1.0710526316E+01               0
GRID*               3387               0-4.500000000E+010.0000000000E+00+
*       9.7368421053E+00               0
GRID*               3388               0-4.400000000E+010.0000000000E+00+
*       8.7631578947E+00               0
GRID*               3389               0-4.500000000E+010.0000000000E+00+
*       7.7894736842E+00               0
GRID*               3390               0-4.400000000E+010.0000000000E+00+
*       6.8157894737E+00               0
GRID*               3391               0-4.500000000E+010.0000000000E+00+
*       5.8421052632E+00               0
GRID*               3392               0-4.400000000E+010.0000000000E+00+
*       4.8684210526E+00               0
GRID*               3393               0-4.500000000E+010.0000000000E+00+
*       3.8947368421E+00               0
GRID*               3394               0-4.400000000E+010.0000000000E+00+
*       2.9210526316E+00               0
GRID*               3395               0-4.500000000E+010.0000000000E+00+
*       1.9473684211E+00               0
GRID*               3396               0-4.400000000E+010.0000000000E+00+
*       9.7368421053E-01               0
GRID*               3397               0-4.500000000E+010.0000000000E+00+
*       -1.221245327E-15               0
GRID*               3398               0-4.400000000E+010.0000000000E+00+
*       -9.736842105E-01               0
GRID*               3399               0-4.500000000E+010.0000000000E+00+
*       -1.947368421E+00               0
GRID*               3400               0-4.400000000E+010.0000000000E+00+
*       -2.921052632E+00               0
GRID*               3401               0-4.500000000E+010.0000000000E+00+
*       -3.894736842E+00               0
GRID*               3402               0-4.400000000E+010.0000000000E+00+
*       -4.868421053E+00               0
GRID*               3403               0-4.500000000E+010.0000000000E+00+
*       -5.842105263E+00               0
GRID*               3404               0-4.400000000E+010.0000000000E+00+
*       -6.815789474E+00               0
GRID*               3405               0-4.500000000E+010.0000000000E+00+
*       -7.789473684E+00               0
GRID*               3406               0-4.400000000E+010.0000000000E+00+
*       -8.763157895E+00               0
GRID*               3407               0-4.500000000E+010.0000000000E+00+
*       -9.736842105E+00               0
GRID*               3408               0-4.400000000E+010.0000000000E+00+
*       -1.071052632E+01               0
GRID*               3409               0-4.500000000E+010.0000000000E+00+
*       -1.168421053E+01               0
GRID*               3410               0-4.400000000E+010.0000000000E+00+
*       -1.265789474E+01               0
GRID*               3411               0-4.500000000E+010.0000000000E+00+
*       -1.363157895E+01               0
GRID*               3412               0-4.400000000E+010.0000000000E+00+
*       -1.460526316E+01               0
GRID*               3413               0-4.500000000E+010.0000000000E+00+
*       -1.557894737E+01               0
GRID*               3414               0-4.400000000E+010.0000000000E+00+
*       -1.655263158E+01               0
GRID*               3415               0-4.600000000E+010.0000000000E+00+
*       1.6552631579E+01               0
GRID*               3416               0-4.700000000E+010.0000000000E+00+
*       1.5578947368E+01               0
GRID*               3417               0-4.600000000E+010.0000000000E+00+
*       1.4605263158E+01               0
GRID*               3418               0-4.700000000E+010.0000000000E+00+
*       1.3631578947E+01               0
GRID*               3419               0-4.600000000E+010.0000000000E+00+
*       1.2657894737E+01               0
GRID*               3420               0-4.700000000E+010.0000000000E+00+
*       1.1684210526E+01               0
GRID*               3421               0-4.600000000E+010.0000000000E+00+
*       1.0710526316E+01               0
GRID*               3422               0-4.700000000E+010.0000000000E+00+
*       9.7368421053E+00               0
GRID*               3423               0-4.600000000E+010.0000000000E+00+
*       8.7631578947E+00               0
GRID*               3424               0-4.700000000E+010.0000000000E+00+
*       7.7894736842E+00               0
GRID*               3425               0-4.600000000E+010.0000000000E+00+
*       6.8157894737E+00               0
GRID*               3426               0-4.700000000E+010.0000000000E+00+
*       5.8421052632E+00               0
GRID*               3427               0-4.600000000E+010.0000000000E+00+
*       4.8684210526E+00               0
GRID*               3428               0-4.700000000E+010.0000000000E+00+
*       3.8947368421E+00               0
GRID*               3429               0-4.600000000E+010.0000000000E+00+
*       2.9210526316E+00               0
GRID*               3430               0-4.700000000E+010.0000000000E+00+
*       1.9473684211E+00               0
GRID*               3431               0-4.600000000E+010.0000000000E+00+
*       9.7368421053E-01               0
GRID*               3432               0-4.700000000E+010.0000000000E+00+
*       0.0000000000E+00               0
GRID*               3433               0-4.600000000E+010.0000000000E+00+
*       -9.736842105E-01               0
GRID*               3434               0-4.700000000E+010.0000000000E+00+
*       -1.947368421E+00               0
GRID*               3435               0-4.600000000E+010.0000000000E+00+
*       -2.921052632E+00               0
GRID*               3436               0-4.700000000E+010.0000000000E+00+
*       -3.894736842E+00               0
GRID*               3437               0-4.600000000E+010.0000000000E+00+
*       -4.868421053E+00               0
GRID*               3438               0-4.700000000E+010.0000000000E+00+
*       -5.842105263E+00               0
GRID*               3439               0-4.600000000E+010.0000000000E+00+
*       -6.815789474E+00               0
GRID*               3440               0-4.700000000E+010.0000000000E+00+
*       -7.789473684E+00               0
GRID*               3441               0-4.600000000E+010.0000000000E+00+
*       -8.763157895E+00               0
GRID*               3442               0-4.700000000E+010.0000000000E+00+
*       -9.736842105E+00               0
GRID*               3443               0-4.600000000E+010.0000000000E+00+
*       -1.071052632E+01               0
GRID*               3444               0-4.700000000E+010.0000000000E+00+
*       -1.168421053E+01               0
GRID*               3445               0-4.600000000E+010.0000000000E+00+
*       -1.265789474E+01               0
GRID*               3446               0-4.700000000E+010.0000000000E+00+
*       -1.363157895E+01               0
GRID*               3447               0-4.600000000E+010.0000000000E+00+
*       -1.460526316E+01               0
GRID*               3448               0-4.700000000E+010.0000000000E+00+
*       -1.557894737E+01               0
GRID*               3449               0-4.600000000E+010.0000000000E+00+
*       -1.655263158E+01               0
GRID*               3450               0-4.800000000E+010.0000000000E+00+
*       1.6552631579E+01               0
GRID*               3451               0-4.900000000E+010.0000000000E+00+
*       1.5578947368E+01               0
GRID*               3452               0-4.800000000E+010.0000000000E+00+
*       1.4605263158E+01               0
GRID*               3453               0-4.900000000E+010.0000000000E+00+
*       1.3631578947E+01               0
GRID*               3454               0-4.800000000E+010.0000000000E+00+
*       1.2657894737E+01               0
GRID*               3455               0-4.900000000E+010.0000000000E+00+
*       1.1684210526E+01               0
GRID*               3456               0-4.800000000E+010.0000000000E+00+
*       1.0710526316E+01               0
GRID*               3457               0-4.900000000E+010.0000000000E+00+
*       9.7368421053E+00               0
GRID*               3458               0-4.800000000E+010.0000000000E+00+
*       8.7631578947E+00               0
GRID*               3459               0-4.900000000E+010.0000000000E+00+
*       7.7894736842E+00               0
GRID*               3460               0-4.800000000E+010.0000000000E+00+
*       6.8157894737E+00               0
GRID*               3461               0-4.900000000E+010.0000000000E+00+
*       5.8421052632E+00               0
GRID*               3462               0-4.800000000E+010.0000000000E+00+
*       4.8684210526E+00               0
GRID*               3463               0-4.900000000E+010.0000000000E+00+
*       3.8947368421E+00               0
GRID*               3464               0-4.800000000E+010.0000000000E+00+
*       2.9210526316E+00               0
GRID*               3465               0-4.900000000E+010.0000000000E+00+
*       1.9473684211E+00               0
GRID*               3466               0-4.800000000E+010.0000000000E+00+
*       9.7368421053E-01               0
GRID*               3467               0-4.900000000E+010.0000000000E+00+
*       0.0000000000E+00               0
GRID*               3468               0-4.800000000E+010.0000000000E+00+
*       -9.736842105E-01               0
GRID*               3469               0-4.900000000E+010.0000000000E+00+
*       -1.947368421E+00               0
GRID*               3470               0-4.800000000E+010.0000000000E+00+
*       -2.921052632E+00               0
GRID*               3471               0-4.900000000E+010.0000000000E+00+
*       -3.894736842E+00               0
GRID*               3472               0-4.800000000E+010.0000000000E+00+
*       -4.868421053E+00               0
GRID*               3473               0-4.900000000E+010.0000000000E+00+
*       -5.842105263E+00               0
GRID*               3474               0-4.800000000E+010.0000000000E+00+
*       -6.815789474E+00               0
GRID*               3475               0-4.900000000E+010.0000000000E+00+
*       -7.789473684E+00               0
GRID*               3476               0-4.800000000E+010.0000000000E+00+
*       -8.763157895E+00               0
GRID*               3477               0-4.900000000E+010.0000000000E+00+
*       -9.736842105E+00               0
GRID*               3478               0-4.800000000E+010.0000000000E+00+
*       -1.071052632E+01               0
GRID*               3479               0-4.900000000E+010.0000000000E+00+
*       -1.168421053E+01               0
GRID*               3480               0-4.800000000E+010.0000000000E+00+
*       -1.265789474E+01               0
GRID*               3481               0-4.900000000E+010.0000000000E+00+
*       -1.363157895E+01               0
GRID*               3482               0-4.800000000E+010.0000000000E+00+
*       -1.460526316E+01               0
GRID*               3483               0-4.900000000E+010.0000000000E+00+
*       -1.557894737E+01               0
GRID*               3484               0-4.800000000E+010.0000000000E+00+
*       -1.655263158E+01               0
GRID*               3485               0-5.000000000E+010.0000000000E+00+
*       1.6552631579E+01               0
GRID*               3486               0-5.100000000E+010.0000000000E+00+
*       1.5578947368E+01               0
GRID*               3487               0-5.000000000E+010.0000000000E+00+
*       1.4605263158E+01               0
GRID*               3488               0-5.100000000E+010.0000000000E+00+
*       1.3631578947E+01               0
GRID*               3489               0-5.000000000E+010.0000000000E+00+
*       1.2657894737E+01               0
GRID*               3490               0-5.100000000E+010.0000000000E+00+
*       1.1684210526E+01               0
GRID*               3491               0-5.000000000E+010.0000000000E+00+
*       1.0710526316E+01               0
GRID*               3492               0-5.100000000E+010.0000000000E+00+
*       9.7368421053E+00               0
GRID*               3493               0-5.000000000E+010.0000000000E+00+
*       8.7631578947E+00               0
GRID*               3494               0-5.100000000E+010.0000000000E+00+
*       7.7894736842E+00               0
GRID*               3495               0-5.000000000E+010.0000000000E+00+
*       6.8157894737E+00               0
GRID*               3496               0-5.100000000E+010.0000000000E+00+
*       5.8421052632E+00               0
GRID*               3497               0-5.000000000E+010.0000000000E+00+
*       4.8684210526E+00               0
GRID*               3498               0-5.100000000E+010.0000000000E+00+
*       3.8947368421E+00               0
GRID*               3499               0-5.000000000E+010.0000000000E+00+
*       2.9210526316E+00               0
GRID*               3500               0-5.100000000E+010.0000000000E+00+
*       1.9473684211E+00               0
GRID*               3501               0-5.000000000E+010.0000000000E+00+
*       9.7368421053E-01               0
GRID*               3502               0-5.100000000E+010.0000000000E+00+
*       -1.165734176E-15               0
GRID*               3503               0-5.000000000E+010.0000000000E+00+
*       -9.736842105E-01               0
GRID*               3504               0-5.100000000E+010.0000000000E+00+
*       -1.947368421E+00               0
GRID*               3505               0-5.000000000E+010.0000000000E+00+
*       -2.921052632E+00               0
GRID*               3506               0-5.100000000E+010.0000000000E+00+
*       -3.894736842E+00               0
GRID*               3507               0-5.000000000E+010.0000000000E+00+
*       -4.868421053E+00               0
GRID*               3508               0-5.100000000E+010.0000000000E+00+
*       -5.842105263E+00               0
GRID*               3509               0-5.000000000E+010.0000000000E+00+
*       -6.815789474E+00               0
GRID*               3510               0-5.100000000E+010.0000000000E+00+
*       -7.789473684E+00               0
GRID*               3511               0-5.000000000E+010.0000000000E+00+
*       -8.763157895E+00               0
GRID*               3512               0-5.100000000E+010.0000000000E+00+
*       -9.736842105E+00               0
GRID*               3513               0-5.000000000E+010.0000000000E+00+
*       -1.071052632E+01               0
GRID*               3514               0-5.100000000E+010.0000000000E+00+
*       -1.168421053E+01               0
GRID*               3515               0-5.000000000E+010.0000000000E+00+
*       -1.265789474E+01               0
GRID*               3516               0-5.100000000E+010.0000000000E+00+
*       -1.363157895E+01               0
GRID*               3517               0-5.000000000E+010.0000000000E+00+
*       -1.460526316E+01               0
GRID*               3518               0-5.100000000E+010.0000000000E+00+
*       -1.557894737E+01               0
GRID*               3519               0-5.000000000E+010.0000000000E+00+
*       -1.655263158E+01               0
GRID*               3520               0-5.200000000E+010.0000000000E+00+
*       1.6552631579E+01               0
GRID*               3521               0-5.300000000E+010.0000000000E+00+
*       1.5578947368E+01               0
GRID*               3522               0-5.200000000E+010.0000000000E+00+
*       1.4605263158E+01               0
GRID*               3523               0-5.300000000E+010.0000000000E+00+
*       1.3631578947E+01               0
GRID*               3524               0-5.200000000E+010.0000000000E+00+
*       1.2657894737E+01               0
GRID*               3525               0-5.300000000E+010.0000000000E+00+
*       1.1684210526E+01               0
GRID*               3526               0-5.200000000E+010.0000000000E+00+
*       1.0710526316E+01               0
GRID*               3527               0-5.300000000E+010.0000000000E+00+
*       9.7368421053E+00               0
GRID*               3528               0-5.200000000E+010.0000000000E+00+
*       8.7631578947E+00               0
GRID*               3529               0-5.300000000E+010.0000000000E+00+
*       7.7894736842E+00               0
GRID*               3530               0-5.200000000E+010.0000000000E+00+
*       6.8157894737E+00               0
GRID*               3531               0-5.300000000E+010.0000000000E+00+
*       5.8421052632E+00               0
GRID*               3532               0-5.200000000E+010.0000000000E+00+
*       4.8684210526E+00               0
GRID*               3533               0-5.300000000E+010.0000000000E+00+
*       3.8947368421E+00               0
GRID*               3534               0-5.200000000E+010.0000000000E+00+
*       2.9210526316E+00               0
GRID*               3535               0-5.300000000E+010.0000000000E+00+
*       1.9473684211E+00               0
GRID*               3536               0-5.200000000E+010.0000000000E+00+
*       9.7368421053E-01               0
GRID*               3537               0-5.300000000E+010.0000000000E+00+
*       1.7763568394E-15               0
GRID*               3538               0-5.200000000E+010.0000000000E+00+
*       -9.736842105E-01               0
GRID*               3539               0-5.300000000E+010.0000000000E+00+
*       -1.947368421E+00               0
GRID*               3540               0-5.200000000E+010.0000000000E+00+
*       -2.921052632E+00               0
GRID*               3541               0-5.300000000E+010.0000000000E+00+
*       -3.894736842E+00               0
GRID*               3542               0-5.200000000E+010.0000000000E+00+
*       -4.868421053E+00               0
GRID*               3543               0-5.300000000E+010.0000000000E+00+
*       -5.842105263E+00               0
GRID*               3544               0-5.200000000E+010.0000000000E+00+
*       -6.815789474E+00               0
GRID*               3545               0-5.300000000E+010.0000000000E+00+
*       -7.789473684E+00               0
GRID*               3546               0-5.200000000E+010.0000000000E+00+
*       -8.763157895E+00               0
GRID*               3547               0-5.300000000E+010.0000000000E+00+
*       -9.736842105E+00               0
GRID*               3548               0-5.200000000E+010.0000000000E+00+
*       -1.071052632E+01               0
GRID*               3549               0-5.300000000E+010.0000000000E+00+
*       -1.168421053E+01               0
GRID*               3550               0-5.200000000E+010.0000000000E+00+
*       -1.265789474E+01               0
GRID*               3551               0-5.300000000E+010.0000000000E+00+
*       -1.363157895E+01               0
GRID*               3552               0-5.200000000E+010.0000000000E+00+
*       -1.460526316E+01               0
GRID*               3553               0-5.300000000E+010.0000000000E+00+
*       -1.557894737E+01               0
GRID*               3554               0-5.200000000E+010.0000000000E+00+
*       -1.655263158E+01               0
GRID*               3555               0-5.400000000E+010.0000000000E+00+
*       1.6552631579E+01               0
GRID*               3556               0-5.500000000E+010.0000000000E+00+
*       1.5578947368E+01               0
GRID*               3557               0-5.400000000E+010.0000000000E+00+
*       1.4605263158E+01               0
GRID*               3558               0-5.500000000E+010.0000000000E+00+
*       1.3631578947E+01               0
GRID*               3559               0-5.400000000E+010.0000000000E+00+
*       1.2657894737E+01               0
GRID*               3560               0-5.500000000E+010.0000000000E+00+
*       1.1684210526E+01               0
GRID*               3561               0-5.400000000E+010.0000000000E+00+
*       1.0710526316E+01               0
GRID*               3562               0-5.500000000E+010.0000000000E+00+
*       9.7368421053E+00               0
GRID*               3563               0-5.400000000E+010.0000000000E+00+
*       8.7631578947E+00               0
GRID*               3564               0-5.500000000E+010.0000000000E+00+
*       7.7894736842E+00               0
GRID*               3565               0-5.400000000E+010.0000000000E+00+
*       6.8157894737E+00               0
GRID*               3566               0-5.500000000E+010.0000000000E+00+
*       5.8421052632E+00               0
GRID*               3567               0-5.400000000E+010.0000000000E+00+
*       4.8684210526E+00               0
GRID*               3568               0-5.500000000E+010.0000000000E+00+
*       3.8947368421E+00               0
GRID*               3569               0-5.400000000E+010.0000000000E+00+
*       2.9210526316E+00               0
GRID*               3570               0-5.500000000E+010.0000000000E+00+
*       1.9473684211E+00               0
GRID*               3571               0-5.400000000E+010.0000000000E+00+
*       9.7368421053E-01               0
GRID*               3572               0-5.500000000E+010.0000000000E+00+
*       0.0000000000E+00               0
GRID*               3573               0-5.400000000E+010.0000000000E+00+
*       -9.736842105E-01               0
GRID*               3574               0-5.500000000E+010.0000000000E+00+
*       -1.947368421E+00               0
GRID*               3575               0-5.400000000E+010.0000000000E+00+
*       -2.921052632E+00               0
GRID*               3576               0-5.500000000E+010.0000000000E+00+
*       -3.894736842E+00               0
GRID*               3577               0-5.400000000E+010.0000000000E+00+
*       -4.868421053E+00               0
GRID*               3578               0-5.500000000E+010.0000000000E+00+
*       -5.842105263E+00               0
GRID*               3579               0-5.400000000E+010.0000000000E+00+
*       -6.815789474E+00               0
GRID*               3580               0-5.500000000E+010.0000000000E+00+
*       -7.789473684E+00               0
GRID*               3581               0-5.400000000E+010.0000000000E+00+
*       -8.763157895E+00               0
GRID*               3582               0-5.500000000E+010.0000000000E+00+
*       -9.736842105E+00               0
GRID*               3583               0-5.400000000E+010.0000000000E+00+
*       -1.071052632E+01               0
GRID*               3584               0-5.500000000E+010.0000000000E+00+
*       -1.168421053E+01               0
GRID*               3585               0-5.400000000E+010.0000000000E+00+
*       -1.265789474E+01               0
GRID*               3586               0-5.500000000E+010.0000000000E+00+
*       -1.363157895E+01               0
GRID*               3587               0-5.400000000E+010.0000000000E+00+
*       -1.460526316E+01               0
GRID*               3588               0-5.500000000E+010.0000000000E+00+
*       -1.557894737E+01               0
GRID*               3589               0-5.400000000E+010.0000000000E+00+
*       -1.655263158E+01               0
GRID*               3590               0-5.600000000E+010.0000000000E+00+
*       1.6552631579E+01               0
GRID*               3591               0-5.700000000E+010.0000000000E+00+
*       1.5578947368E+01               0
GRID*               3592               0-5.600000000E+010.0000000000E+00+
*       1.4605263158E+01               0
GRID*               3593               0-5.700000000E+010.0000000000E+00+
*       1.3631578947E+01               0
GRID*               3594               0-5.600000000E+010.0000000000E+00+
*       1.2657894737E+01               0
GRID*               3595               0-5.700000000E+010.0000000000E+00+
*       1.1684210526E+01               0
GRID*               3596               0-5.600000000E+010.0000000000E+00+
*       1.0710526316E+01               0
GRID*               3597               0-5.700000000E+010.0000000000E+00+
*       9.7368421053E+00               0
GRID*               3598               0-5.600000000E+010.0000000000E+00+
*       8.7631578947E+00               0
GRID*               3599               0-5.700000000E+010.0000000000E+00+
*       7.7894736842E+00               0
GRID*               3600               0-5.600000000E+010.0000000000E+00+
*       6.8157894737E+00               0
GRID*               3601               0-5.700000000E+010.0000000000E+00+
*       5.8421052632E+00               0
GRID*               3602               0-5.600000000E+010.0000000000E+00+
*       4.8684210526E+00               0
GRID*               3603               0-5.700000000E+010.0000000000E+00+
*       3.8947368421E+00               0
GRID*               3604               0-5.600000000E+010.0000000000E+00+
*       2.9210526316E+00               0
GRID*               3605               0-5.700000000E+010.0000000000E+00+
*       1.9473684211E+00               0
GRID*               3606               0-5.600000000E+010.0000000000E+00+
*       9.7368421053E-01               0
GRID*               3607               0-5.700000000E+010.0000000000E+00+
*       0.0000000000E+00               0
GRID*               3608               0-5.600000000E+010.0000000000E+00+
*       -9.736842105E-01               0
GRID*               3609               0-5.700000000E+010.0000000000E+00+
*       -1.947368421E+00               0
GRID*               3610               0-5.600000000E+010.0000000000E+00+
*       -2.921052632E+00               0
GRID*               3611               0-5.700000000E+010.0000000000E+00+
*       -3.894736842E+00               0
GRID*               3612               0-5.600000000E+010.0000000000E+00+
*       -4.868421053E+00               0
GRID*               3613               0-5.700000000E+010.0000000000E+00+
*       -5.842105263E+00               0
GRID*               3614               0-5.600000000E+010.0000000000E+00+
*       -6.815789474E+00               0
GRID*               3615               0-5.700000000E+010.0000000000E+00+
*       -7.789473684E+00               0
GRID*               3616               0-5.600000000E+010.0000000000E+00+
*       -8.763157895E+00               0
GRID*               3617               0-5.700000000E+010.0000000000E+00+
*       -9.736842105E+00               0
GRID*               3618               0-5.600000000E+010.0000000000E+00+
*       -1.071052632E+01               0
GRID*               3619               0-5.700000000E+010.0000000000E+00+
*       -1.168421053E+01               0
GRID*               3620               0-5.600000000E+010.0000000000E+00+
*       -1.265789474E+01               0
GRID*               3621               0-5.700000000E+010.0000000000E+00+
*       -1.363157895E+01               0
GRID*               3622               0-5.600000000E+010.0000000000E+00+
*       -1.460526316E+01               0
GRID*               3623               0-5.700000000E+010.0000000000E+00+
*       -1.557894737E+01               0
GRID*               3624               0-5.600000000E+010.0000000000E+00+
*       -1.655263158E+01               0
GRID*               3625               0-5.800000000E+010.0000000000E+00+
*       1.6552631579E+01               0
GRID*               3626               0-5.900000000E+010.0000000000E+00+
*       1.5578947368E+01               0
GRID*               3627               0-5.800000000E+010.0000000000E+00+
*       1.4605263158E+01               0
GRID*               3628               0-5.900000000E+010.0000000000E+00+
*       1.3631578947E+01               0
GRID*               3629               0-5.800000000E+010.0000000000E+00+
*       1.2657894737E+01               0
GRID*               3630               0-5.900000000E+010.0000000000E+00+
*       1.1684210526E+01               0
GRID*               3631               0-5.800000000E+010.0000000000E+00+
*       1.0710526316E+01               0
GRID*               3632               0-5.900000000E+010.0000000000E+00+
*       9.7368421053E+00               0
GRID*               3633               0-5.800000000E+010.0000000000E+00+
*       8.7631578947E+00               0
GRID*               3634               0-5.900000000E+010.0000000000E+00+
*       7.7894736842E+00               0
GRID*               3635               0-5.800000000E+010.0000000000E+00+
*       6.8157894737E+00               0
GRID*               3636               0-5.900000000E+010.0000000000E+00+
*       5.8421052632E+00               0
GRID*               3637               0-5.800000000E+010.0000000000E+00+
*       4.8684210526E+00               0
GRID*               3638               0-5.900000000E+010.0000000000E+00+
*       3.8947368421E+00               0
GRID*               3639               0-5.800000000E+010.0000000000E+00+
*       2.9210526316E+00               0
GRID*               3640               0-5.900000000E+010.0000000000E+00+
*       1.9473684211E+00               0
GRID*               3641               0-5.800000000E+010.0000000000E+00+
*       9.7368421053E-01               0
GRID*               3642               0-5.900000000E+010.0000000000E+00+
*       0.0000000000E+00               0
GRID*               3643               0-5.800000000E+010.0000000000E+00+
*       -9.736842105E-01               0
GRID*               3644               0-5.900000000E+010.0000000000E+00+
*       -1.947368421E+00               0
GRID*               3645               0-5.800000000E+010.0000000000E+00+
*       -2.921052632E+00               0
GRID*               3646               0-5.900000000E+010.0000000000E+00+
*       -3.894736842E+00               0
GRID*               3647               0-5.800000000E+010.0000000000E+00+
*       -4.868421053E+00               0
GRID*               3648               0-5.900000000E+010.0000000000E+00+
*       -5.842105263E+00               0
GRID*               3649               0-5.800000000E+010.0000000000E+00+
*       -6.815789474E+00               0
GRID*               3650               0-5.900000000E+010.0000000000E+00+
*       -7.789473684E+00               0
GRID*               3651               0-5.800000000E+010.0000000000E+00+
*       -8.763157895E+00               0
GRID*               3652               0-5.900000000E+010.0000000000E+00+
*       -9.736842105E+00               0
GRID*               3653               0-5.800000000E+010.0000000000E+00+
*       -1.071052632E+01               0
GRID*               3654               0-5.900000000E+010.0000000000E+00+
*       -1.168421053E+01               0
GRID*               3655               0-5.800000000E+010.0000000000E+00+
*       -1.265789474E+01               0
GRID*               3656               0-5.900000000E+010.0000000000E+00+
*       -1.363157895E+01               0
GRID*               3657               0-5.800000000E+010.0000000000E+00+
*       -1.460526316E+01               0
GRID*               3658               0-5.900000000E+010.0000000000E+00+
*       -1.557894737E+01               0
GRID*               3659               0-5.800000000E+010.0000000000E+00+
*       -1.655263158E+01               0
GRID*               3660               0-6.000000000E+010.0000000000E+00+
*       1.6552631579E+01               0
GRID*               3661               0-6.100000000E+010.0000000000E+00+
*       1.5578947368E+01               0
GRID*               3662               0-6.000000000E+010.0000000000E+00+
*       1.4605263158E+01               0
GRID*               3663               0-6.100000000E+010.0000000000E+00+
*       1.3631578947E+01               0
GRID*               3664               0-6.000000000E+010.0000000000E+00+
*       1.2657894737E+01               0
GRID*               3665               0-6.100000000E+010.0000000000E+00+
*       1.1684210526E+01               0
GRID*               3666               0-6.000000000E+010.0000000000E+00+
*       1.0710526316E+01               0
GRID*               3667               0-6.100000000E+010.0000000000E+00+
*       9.7368421053E+00               0
GRID*               3668               0-6.000000000E+010.0000000000E+00+
*       8.7631578947E+00               0
GRID*               3669               0-6.100000000E+010.0000000000E+00+
*       7.7894736842E+00               0
GRID*               3670               0-6.000000000E+010.0000000000E+00+
*       6.8157894737E+00               0
GRID*               3671               0-6.100000000E+010.0000000000E+00+
*       5.8421052632E+00               0
GRID*               3672               0-6.000000000E+010.0000000000E+00+
*       4.8684210526E+00               0
GRID*               3673               0-6.100000000E+010.0000000000E+00+
*       3.8947368421E+00               0
GRID*               3674               0-6.000000000E+010.0000000000E+00+
*       2.9210526316E+00               0
GRID*               3675               0-6.100000000E+010.0000000000E+00+
*       1.9473684211E+00               0
GRID*               3676               0-6.000000000E+010.0000000000E+00+
*       9.7368421053E-01               0
GRID*               3677               0-6.100000000E+010.0000000000E+00+
*       0.0000000000E+00               0
GRID*               3678               0-6.000000000E+010.0000000000E+00+
*       -9.736842105E-01               0
GRID*               3679               0-6.100000000E+010.0000000000E+00+
*       -1.947368421E+00               0
GRID*               3680               0-6.000000000E+010.0000000000E+00+
*       -2.921052632E+00               0
GRID*               3681               0-6.100000000E+010.0000000000E+00+
*       -3.894736842E+00               0
GRID*               3682               0-6.000000000E+010.0000000000E+00+
*       -4.868421053E+00               0
GRID*               3683               0-6.100000000E+010.0000000000E+00+
*       -5.842105263E+00               0
GRID*               3684               0-6.000000000E+010.0000000000E+00+
*       -6.815789474E+00               0
GRID*               3685               0-6.100000000E+010.0000000000E+00+
*       -7.789473684E+00               0
GRID*               3686               0-6.000000000E+010.0000000000E+00+
*       -8.763157895E+00               0
GRID*               3687               0-6.100000000E+010.0000000000E+00+
*       -9.736842105E+00               0
GRID*               3688               0-6.000000000E+010.0000000000E+00+
*       -1.071052632E+01               0
GRID*               3689               0-6.100000000E+010.0000000000E+00+
*       -1.168421053E+01               0
GRID*               3690               0-6.000000000E+010.0000000000E+00+
*       -1.265789474E+01               0
GRID*               3691               0-6.100000000E+010.0000000000E+00+
*       -1.363157895E+01               0
GRID*               3692               0-6.000000000E+010.0000000000E+00+
*       -1.460526316E+01               0
GRID*               3693               0-6.100000000E+010.0000000000E+00+
*       -1.557894737E+01               0
GRID*               3694               0-6.000000000E+010.0000000000E+00+
*       -1.655263158E+01               0
GRID*               3695               0-6.200000000E+010.0000000000E+00+
*       1.6552631579E+01               0
GRID*               3696               0-6.300000000E+010.0000000000E+00+
*       1.5578947368E+01               0
GRID*               3697               0-6.200000000E+010.0000000000E+00+
*       1.4605263158E+01               0
GRID*               3698               0-6.300000000E+010.0000000000E+00+
*       1.3631578947E+01               0
GRID*               3699               0-6.200000000E+010.0000000000E+00+
*       1.2657894737E+01               0
GRID*               3700               0-6.300000000E+010.0000000000E+00+
*       1.1684210526E+01               0
GRID*               3701               0-6.200000000E+010.0000000000E+00+
*       1.0710526316E+01               0
GRID*               3702               0-6.300000000E+010.0000000000E+00+
*       9.7368421053E+00               0
GRID*               3703               0-6.200000000E+010.0000000000E+00+
*       8.7631578947E+00               0
GRID*               3704               0-6.300000000E+010.0000000000E+00+
*       7.7894736842E+00               0
GRID*               3705               0-6.200000000E+010.0000000000E+00+
*       6.8157894737E+00               0
GRID*               3706               0-6.300000000E+010.0000000000E+00+
*       5.8421052632E+00               0
GRID*               3707               0-6.200000000E+010.0000000000E+00+
*       4.8684210526E+00               0
GRID*               3708               0-6.300000000E+010.0000000000E+00+
*       3.8947368421E+00               0
GRID*               3709               0-6.200000000E+010.0000000000E+00+
*       2.9210526316E+00               0
GRID*               3710               0-6.300000000E+010.0000000000E+00+
*       1.9473684211E+00               0
GRID*               3711               0-6.200000000E+010.0000000000E+00+
*       9.7368421053E-01               0
GRID*               3712               0-6.300000000E+010.0000000000E+00+
*       2.5535129566E-15               0
GRID*               3713               0-6.200000000E+010.0000000000E+00+
*       -9.736842105E-01               0
GRID*               3714               0-6.300000000E+010.0000000000E+00+
*       -1.947368421E+00               0
GRID*               3715               0-6.200000000E+010.0000000000E+00+
*       -2.921052632E+00               0
GRID*               3716               0-6.300000000E+010.0000000000E+00+
*       -3.894736842E+00               0
GRID*               3717               0-6.200000000E+010.0000000000E+00+
*       -4.868421053E+00               0
GRID*               3718               0-6.300000000E+010.0000000000E+00+
*       -5.842105263E+00               0
GRID*               3719               0-6.200000000E+010.0000000000E+00+
*       -6.815789474E+00               0
GRID*               3720               0-6.300000000E+010.0000000000E+00+
*       -7.789473684E+00               0
GRID*               3721               0-6.200000000E+010.0000000000E+00+
*       -8.763157895E+00               0
GRID*               3722               0-6.300000000E+010.0000000000E+00+
*       -9.736842105E+00               0
GRID*               3723               0-6.200000000E+010.0000000000E+00+
*       -1.071052632E+01               0
GRID*               3724               0-6.300000000E+010.0000000000E+00+
*       -1.168421053E+01               0
GRID*               3725               0-6.200000000E+010.0000000000E+00+
*       -1.265789474E+01               0
GRID*               3726               0-6.300000000E+010.0000000000E+00+
*       -1.363157895E+01               0
GRID*               3727               0-6.200000000E+010.0000000000E+00+
*       -1.460526316E+01               0
GRID*               3728               0-6.300000000E+010.0000000000E+00+
*       -1.557894737E+01               0
GRID*               3729               0-6.200000000E+010.0000000000E+00+
*       -1.655263158E+01               0
GRID*               3730               0-6.400000000E+010.0000000000E+00+
*       1.6552631579E+01               0
GRID*               3731               0-6.500000000E+010.0000000000E+00+
*       1.5578947368E+01               0
GRID*               3732               0-6.400000000E+010.0000000000E+00+
*       1.4605263158E+01               0
GRID*               3733               0-6.500000000E+010.0000000000E+00+
*       1.3631578947E+01               0
GRID*               3734               0-6.400000000E+010.0000000000E+00+
*       1.2657894737E+01               0
GRID*               3735               0-6.500000000E+010.0000000000E+00+
*       1.1684210526E+01               0
GRID*               3736               0-6.400000000E+010.0000000000E+00+
*       1.0710526316E+01               0
GRID*               3737               0-6.500000000E+010.0000000000E+00+
*       9.7368421053E+00               0
GRID*               3738               0-6.400000000E+010.0000000000E+00+
*       8.7631578947E+00               0
GRID*               3739               0-6.500000000E+010.0000000000E+00+
*       7.7894736842E+00               0
GRID*               3740               0-6.400000000E+010.0000000000E+00+
*       6.8157894737E+00               0
GRID*               3741               0-6.500000000E+010.0000000000E+00+
*       5.8421052632E+00               0
GRID*               3742               0-6.400000000E+010.0000000000E+00+
*       4.8684210526E+00               0
GRID*               3743               0-6.500000000E+010.0000000000E+00+
*       3.8947368421E+00               0
GRID*               3744               0-6.400000000E+010.0000000000E+00+
*       2.9210526316E+00               0
GRID*               3745               0-6.500000000E+010.0000000000E+00+
*       1.9473684211E+00               0
GRID*               3746               0-6.400000000E+010.0000000000E+00+
*       9.7368421053E-01               0
GRID*               3747               0-6.500000000E+010.0000000000E+00+
*       0.0000000000E+00               0
GRID*               3748               0-6.400000000E+010.0000000000E+00+
*       -9.736842105E-01               0
GRID*               3749               0-6.500000000E+010.0000000000E+00+
*       -1.947368421E+00               0
GRID*               3750               0-6.400000000E+010.0000000000E+00+
*       -2.921052632E+00               0
GRID*               3751               0-6.500000000E+010.0000000000E+00+
*       -3.894736842E+00               0
GRID*               3752               0-6.400000000E+010.0000000000E+00+
*       -4.868421053E+00               0
GRID*               3753               0-6.500000000E+010.0000000000E+00+
*       -5.842105263E+00               0
GRID*               3754               0-6.400000000E+010.0000000000E+00+
*       -6.815789474E+00               0
GRID*               3755               0-6.500000000E+010.0000000000E+00+
*       -7.789473684E+00               0
GRID*               3756               0-6.400000000E+010.0000000000E+00+
*       -8.763157895E+00               0
GRID*               3757               0-6.500000000E+010.0000000000E+00+
*       -9.736842105E+00               0
GRID*               3758               0-6.400000000E+010.0000000000E+00+
*       -1.071052632E+01               0
GRID*               3759               0-6.500000000E+010.0000000000E+00+
*       -1.168421053E+01               0
GRID*               3760               0-6.400000000E+010.0000000000E+00+
*       -1.265789474E+01               0
GRID*               3761               0-6.500000000E+010.0000000000E+00+
*       -1.363157895E+01               0
GRID*               3762               0-6.400000000E+010.0000000000E+00+
*       -1.460526316E+01               0
GRID*               3763               0-6.500000000E+010.0000000000E+00+
*       -1.557894737E+01               0
GRID*               3764               0-6.400000000E+010.0000000000E+00+
*       -1.655263158E+01               0
GRID*               3765               0-6.600000000E+010.0000000000E+00+
*       1.6552631579E+01               0
GRID*               3766               0-6.700000000E+010.0000000000E+00+
*       1.5578947368E+01               0
GRID*               3767               0-6.600000000E+010.0000000000E+00+
*       1.4605263158E+01               0
GRID*               3768               0-6.700000000E+010.0000000000E+00+
*       1.3631578947E+01               0
GRID*               3769               0-6.600000000E+010.0000000000E+00+
*       1.2657894737E+01               0
GRID*               3770               0-6.700000000E+010.0000000000E+00+
*       1.1684210526E+01               0
GRID*               3771               0-6.600000000E+010.0000000000E+00+
*       1.0710526316E+01               0
GRID*               3772               0-6.700000000E+010.0000000000E+00+
*       9.7368421053E+00               0
GRID*               3773               0-6.600000000E+010.0000000000E+00+
*       8.7631578947E+00               0
GRID*               3774               0-6.700000000E+010.0000000000E+00+
*       7.7894736842E+00               0
GRID*               3775               0-6.600000000E+010.0000000000E+00+
*       6.8157894737E+00               0
GRID*               3776               0-6.700000000E+010.0000000000E+00+
*       5.8421052632E+00               0
GRID*               3777               0-6.600000000E+010.0000000000E+00+
*       4.8684210526E+00               0
GRID*               3778               0-6.700000000E+010.0000000000E+00+
*       3.8947368421E+00               0
GRID*               3779               0-6.600000000E+010.0000000000E+00+
*       2.9210526316E+00               0
GRID*               3780               0-6.700000000E+010.0000000000E+00+
*       1.9473684211E+00               0
GRID*               3781               0-6.600000000E+010.0000000000E+00+
*       9.7368421053E-01               0
GRID*               3782               0-6.700000000E+010.0000000000E+00+
*       -1.998401444E-15               0
GRID*               3783               0-6.600000000E+010.0000000000E+00+
*       -9.736842105E-01               0
GRID*               3784               0-6.700000000E+010.0000000000E+00+
*       -1.947368421E+00               0
GRID*               3785               0-6.600000000E+010.0000000000E+00+
*       -2.921052632E+00               0
GRID*               3786               0-6.700000000E+010.0000000000E+00+
*       -3.894736842E+00               0
GRID*               3787               0-6.600000000E+010.0000000000E+00+
*       -4.868421053E+00               0
GRID*               3788               0-6.700000000E+010.0000000000E+00+
*       -5.842105263E+00               0
GRID*               3789               0-6.600000000E+010.0000000000E+00+
*       -6.815789474E+00               0
GRID*               3790               0-6.700000000E+010.0000000000E+00+
*       -7.789473684E+00               0
GRID*               3791               0-6.600000000E+010.0000000000E+00+
*       -8.763157895E+00               0
GRID*               3792               0-6.700000000E+010.0000000000E+00+
*       -9.736842105E+00               0
GRID*               3793               0-6.600000000E+010.0000000000E+00+
*       -1.071052632E+01               0
GRID*               3794               0-6.700000000E+010.0000000000E+00+
*       -1.168421053E+01               0
GRID*               3795               0-6.600000000E+010.0000000000E+00+
*       -1.265789474E+01               0
GRID*               3796               0-6.700000000E+010.0000000000E+00+
*       -1.363157895E+01               0
GRID*               3797               0-6.600000000E+010.0000000000E+00+
*       -1.460526316E+01               0
GRID*               3798               0-6.700000000E+010.0000000000E+00+
*       -1.557894737E+01               0
GRID*               3799               0-6.600000000E+010.0000000000E+00+
*       -1.655263158E+01               0
GRID*               3800               0-6.800000000E+010.0000000000E+00+
*       1.6552631579E+01               0
GRID*               3801               0-6.900000000E+010.0000000000E+00+
*       1.5578947368E+01               0
GRID*               3802               0-6.800000000E+010.0000000000E+00+
*       1.4605263158E+01               0
GRID*               3803               0-6.900000000E+010.0000000000E+00+
*       1.3631578947E+01               0
GRID*               3804               0-6.800000000E+010.0000000000E+00+
*       1.2657894737E+01               0
GRID*               3805               0-6.900000000E+010.0000000000E+00+
*       1.1684210526E+01               0
GRID*               3806               0-6.800000000E+010.0000000000E+00+
*       1.0710526316E+01               0
GRID*               3807               0-6.900000000E+010.0000000000E+00+
*       9.7368421053E+00               0
GRID*               3808               0-6.800000000E+010.0000000000E+00+
*       8.7631578947E+00               0
GRID*               3809               0-6.900000000E+010.0000000000E+00+
*       7.7894736842E+00               0
GRID*               3810               0-6.800000000E+010.0000000000E+00+
*       6.8157894737E+00               0
GRID*               3811               0-6.900000000E+010.0000000000E+00+
*       5.8421052632E+00               0
GRID*               3812               0-6.800000000E+010.0000000000E+00+
*       4.8684210526E+00               0
GRID*               3813               0-6.900000000E+010.0000000000E+00+
*       3.8947368421E+00               0
GRID*               3814               0-6.800000000E+010.0000000000E+00+
*       2.9210526316E+00               0
GRID*               3815               0-6.900000000E+010.0000000000E+00+
*       1.9473684211E+00               0
GRID*               3816               0-6.800000000E+010.0000000000E+00+
*       9.7368421053E-01               0
GRID*               3817               0-6.900000000E+010.0000000000E+00+
*       3.3584246495E-15               0
GRID*               3818               0-6.800000000E+010.0000000000E+00+
*       -9.736842105E-01               0
GRID*               3819               0-6.900000000E+010.0000000000E+00+
*       -1.947368421E+00               0
GRID*               3820               0-6.800000000E+010.0000000000E+00+
*       -2.921052632E+00               0
GRID*               3821               0-6.900000000E+010.0000000000E+00+
*       -3.894736842E+00               0
GRID*               3822               0-6.800000000E+010.0000000000E+00+
*       -4.868421053E+00               0
GRID*               3823               0-6.900000000E+010.0000000000E+00+
*       -5.842105263E+00               0
GRID*               3824               0-6.800000000E+010.0000000000E+00+
*       -6.815789474E+00               0
GRID*               3825               0-6.900000000E+010.0000000000E+00+
*       -7.789473684E+00               0
GRID*               3826               0-6.800000000E+010.0000000000E+00+
*       -8.763157895E+00               0
GRID*               3827               0-6.900000000E+010.0000000000E+00+
*       -9.736842105E+00               0
GRID*               3828               0-6.800000000E+010.0000000000E+00+
*       -1.071052632E+01               0
GRID*               3829               0-6.900000000E+010.0000000000E+00+
*       -1.168421053E+01               0
GRID*               3830               0-6.800000000E+010.0000000000E+00+
*       -1.265789474E+01               0
GRID*               3831               0-6.900000000E+010.0000000000E+00+
*       -1.363157895E+01               0
GRID*               3832               0-6.800000000E+010.0000000000E+00+
*       -1.460526316E+01               0
GRID*               3833               0-6.900000000E+010.0000000000E+00+
*       -1.557894737E+01               0
GRID*               3834               0-6.800000000E+010.0000000000E+00+
*       -1.655263158E+01               0
GRID*               3835               0-7.000000000E+010.0000000000E+00+
*       1.6552631579E+01               0
GRID*               3836               0-7.100000000E+010.0000000000E+00+
*       1.5578947368E+01               0
GRID*               3837               0-7.000000000E+010.0000000000E+00+
*       1.4605263158E+01               0
GRID*               3838               0-7.100000000E+010.0000000000E+00+
*       1.3631578947E+01               0
GRID*               3839               0-7.000000000E+010.0000000000E+00+
*       1.2657894737E+01               0
GRID*               3840               0-7.100000000E+010.0000000000E+00+
*       1.1684210526E+01               0
GRID*               3841               0-7.000000000E+010.0000000000E+00+
*       1.0710526316E+01               0
GRID*               3842               0-7.100000000E+010.0000000000E+00+
*       9.7368421053E+00               0
GRID*               3843               0-7.000000000E+010.0000000000E+00+
*       8.7631578947E+00               0
GRID*               3844               0-7.100000000E+010.0000000000E+00+
*       7.7894736842E+00               0
GRID*               3845               0-7.000000000E+010.0000000000E+00+
*       6.8157894737E+00               0
GRID*               3846               0-7.100000000E+010.0000000000E+00+
*       5.8421052632E+00               0
GRID*               3847               0-7.000000000E+010.0000000000E+00+
*       4.8684210526E+00               0
GRID*               3848               0-7.100000000E+010.0000000000E+00+
*       3.8947368421E+00               0
GRID*               3849               0-7.000000000E+010.0000000000E+00+
*       2.9210526316E+00               0
GRID*               3850               0-7.100000000E+010.0000000000E+00+
*       1.9473684211E+00               0
GRID*               3851               0-7.000000000E+010.0000000000E+00+
*       9.7368421053E-01               0
GRID*               3852               0-7.100000000E+010.0000000000E+00+
*       -1.290634266E-15               0
GRID*               3853               0-7.000000000E+010.0000000000E+00+
*       -9.736842105E-01               0
GRID*               3854               0-7.100000000E+010.0000000000E+00+
*       -1.947368421E+00               0
GRID*               3855               0-7.000000000E+010.0000000000E+00+
*       -2.921052632E+00               0
GRID*               3856               0-7.100000000E+010.0000000000E+00+
*       -3.894736842E+00               0
GRID*               3857               0-7.000000000E+010.0000000000E+00+
*       -4.868421053E+00               0
GRID*               3858               0-7.100000000E+010.0000000000E+00+
*       -5.842105263E+00               0
GRID*               3859               0-7.000000000E+010.0000000000E+00+
*       -6.815789474E+00               0
GRID*               3860               0-7.100000000E+010.0000000000E+00+
*       -7.789473684E+00               0
GRID*               3861               0-7.000000000E+010.0000000000E+00+
*       -8.763157895E+00               0
GRID*               3862               0-7.100000000E+010.0000000000E+00+
*       -9.736842105E+00               0
GRID*               3863               0-7.000000000E+010.0000000000E+00+
*       -1.071052632E+01               0
GRID*               3864               0-7.100000000E+010.0000000000E+00+
*       -1.168421053E+01               0
GRID*               3865               0-7.000000000E+010.0000000000E+00+
*       -1.265789474E+01               0
GRID*               3866               0-7.100000000E+010.0000000000E+00+
*       -1.363157895E+01               0
GRID*               3867               0-7.000000000E+010.0000000000E+00+
*       -1.460526316E+01               0
GRID*               3868               0-7.100000000E+010.0000000000E+00+
*       -1.557894737E+01               0
GRID*               3869               0-7.000000000E+010.0000000000E+00+
*       -1.655263158E+01               0
GRID*               3870               0-7.200000000E+010.0000000000E+00+
*       1.6552631579E+01               0
GRID*               3871               0-7.300000000E+010.0000000000E+00+
*       1.5578947368E+01               0
GRID*               3872               0-7.200000000E+010.0000000000E+00+
*       1.4605263158E+01               0
GRID*               3873               0-7.300000000E+010.0000000000E+00+
*       1.3631578947E+01               0
GRID*               3874               0-7.200000000E+010.0000000000E+00+
*       1.2657894737E+01               0
GRID*               3875               0-7.300000000E+010.0000000000E+00+
*       1.1684210526E+01               0
GRID*               3876               0-7.200000000E+010.0000000000E+00+
*       1.0710526316E+01               0
GRID*               3877               0-7.300000000E+010.0000000000E+00+
*       9.7368421053E+00               0
GRID*               3878               0-7.200000000E+010.0000000000E+00+
*       8.7631578947E+00               0
GRID*               3879               0-7.300000000E+010.0000000000E+00+
*       7.7894736842E+00               0
GRID*               3880               0-7.200000000E+010.0000000000E+00+
*       6.8157894737E+00               0
GRID*               3881               0-7.300000000E+010.0000000000E+00+
*       5.8421052632E+00               0
GRID*               3882               0-7.200000000E+010.0000000000E+00+
*       4.8684210526E+00               0
GRID*               3883               0-7.300000000E+010.0000000000E+00+
*       3.8947368421E+00               0
GRID*               3884               0-7.200000000E+010.0000000000E+00+
*       2.9210526316E+00               0
GRID*               3885               0-7.300000000E+010.0000000000E+00+
*       1.9473684211E+00               0
GRID*               3886               0-7.200000000E+010.0000000000E+00+
*       9.7368421053E-01               0
GRID*               3887               0-7.300000000E+010.0000000000E+00+
*       -2.518818487E-15               0
GRID*               3888               0-7.200000000E+010.0000000000E+00+
*       -9.736842105E-01               0
GRID*               3889               0-7.300000000E+010.0000000000E+00+
*       -1.947368421E+00               0
GRID*               3890               0-7.200000000E+010.0000000000E+00+
*       -2.921052632E+00               0
GRID*               3891               0-7.300000000E+010.0000000000E+00+
*       -3.894736842E+00               0
GRID*               3892               0-7.200000000E+010.0000000000E+00+
*       -4.868421053E+00               0
GRID*               3893               0-7.300000000E+010.0000000000E+00+
*       -5.842105263E+00               0
GRID*               3894               0-7.200000000E+010.0000000000E+00+
*       -6.815789474E+00               0
GRID*               3895               0-7.300000000E+010.0000000000E+00+
*       -7.789473684E+00               0
GRID*               3896               0-7.200000000E+010.0000000000E+00+
*       -8.763157895E+00               0
GRID*               3897               0-7.300000000E+010.0000000000E+00+
*       -9.736842105E+00               0
GRID*               3898               0-7.200000000E+010.0000000000E+00+
*       -1.071052632E+01               0
GRID*               3899               0-7.300000000E+010.0000000000E+00+
*       -1.168421053E+01               0
GRID*               3900               0-7.200000000E+010.0000000000E+00+
*       -1.265789474E+01               0
GRID*               3901               0-7.300000000E+010.0000000000E+00+
*       -1.363157895E+01               0
GRID*               3902               0-7.200000000E+010.0000000000E+00+
*       -1.460526316E+01               0
GRID*               3903               0-7.300000000E+010.0000000000E+00+
*       -1.557894737E+01               0
GRID*               3904               0-7.200000000E+010.0000000000E+00+
*       -1.655263158E+01               0
GRID*               3905               07.3000000000E+010.0000000000E+00+
*       1.7526315789E+01               0
GRID*               3906               07.4000000000E+010.0000000000E+00+
*       1.6552631579E+01               0
GRID*               3907               07.1000000000E+010.0000000000E+00+
*       1.7526315789E+01               0
GRID*               3908               06.9000000000E+010.0000000000E+00+
*       1.7526315789E+01               0
GRID*               3909               06.7000000000E+010.0000000000E+00+
*       1.7526315789E+01               0
GRID*               3910               06.5000000000E+010.0000000000E+00+
*       1.7526315789E+01               0
GRID*               3911               06.3000000000E+010.0000000000E+00+
*       1.7526315789E+01               0
GRID*               3912               06.1000000000E+010.0000000000E+00+
*       1.7526315789E+01               0
GRID*               3913               05.9000000000E+010.0000000000E+00+
*       1.7526315789E+01               0
GRID*               3914               05.7000000000E+010.0000000000E+00+
*       1.7526315789E+01               0
GRID*               3915               05.5000000000E+010.0000000000E+00+
*       1.7526315789E+01               0
GRID*               3916               05.3000000000E+010.0000000000E+00+
*       1.7526315789E+01               0
GRID*               3917               05.1000000000E+010.0000000000E+00+
*       1.7526315789E+01               0
GRID*               3918               04.9000000000E+010.0000000000E+00+
*       1.7526315789E+01               0
GRID*               3919               04.7000000000E+010.0000000000E+00+
*       1.7526315789E+01               0
GRID*               3920               04.5000000000E+010.0000000000E+00+
*       1.7526315789E+01               0
GRID*               3921               04.3000000000E+010.0000000000E+00+
*       1.7526315789E+01               0
GRID*               3922               04.1000000000E+010.0000000000E+00+
*       1.7526315789E+01               0
GRID*               3923               03.9000000000E+010.0000000000E+00+
*       1.7526315789E+01               0
GRID*               3924               03.7000000000E+010.0000000000E+00+
*       1.7526315789E+01               0
GRID*               3925               03.5000000000E+010.0000000000E+00+
*       1.7526315789E+01               0
GRID*               3926               03.3000000000E+010.0000000000E+00+
*       1.7526315789E+01               0
GRID*               3927               03.1000000000E+010.0000000000E+00+
*       1.7526315789E+01               0
GRID*               3928               02.9000000000E+010.0000000000E+00+
*       1.7526315789E+01               0
GRID*               3929               02.7000000000E+010.0000000000E+00+
*       1.7526315789E+01               0
GRID*               3930               02.5000000000E+010.0000000000E+00+
*       1.7526315789E+01               0
GRID*               3931               02.3000000000E+010.0000000000E+00+
*       1.7526315789E+01               0
GRID*               3932               02.1000000000E+010.0000000000E+00+
*       1.7526315789E+01               0
GRID*               3933               01.9000000000E+010.0000000000E+00+
*       1.7526315789E+01               0
GRID*               3934               01.7000000000E+010.0000000000E+00+
*       1.7526315789E+01               0
GRID*               3935               01.5000000000E+010.0000000000E+00+
*       1.7526315789E+01               0
GRID*               3936               01.3000000000E+010.0000000000E+00+
*       1.7526315789E+01               0
GRID*               3937               01.1000000000E+010.0000000000E+00+
*       1.7526315789E+01               0
GRID*               3938               09.0000000000E+000.0000000000E+00+
*       1.7526315789E+01               0
GRID*               3939               07.0000000000E+000.0000000000E+00+
*       1.7526315789E+01               0
GRID*               3940               05.0000000000E+000.0000000000E+00+
*       1.7526315789E+01               0
GRID*               3941               03.0000000000E+000.0000000000E+00+
*       1.7526315789E+01               0
GRID*               3942               01.0000000000E+000.0000000000E+00+
*       1.7526315789E+01               0
GRID*               3943               0-1.000000000E+000.0000000000E+00+
*       1.7526315789E+01               0
GRID*               3944               0-3.000000000E+000.0000000000E+00+
*       1.7526315789E+01               0
GRID*               3945               0-5.000000000E+000.0000000000E+00+
*       1.7526315789E+01               0
GRID*               3946               0-7.000000000E+000.0000000000E+00+
*       1.7526315789E+01               0
GRID*               3947               0-9.000000000E+000.0000000000E+00+
*       1.7526315789E+01               0
GRID*               3948               0-1.100000000E+010.0000000000E+00+
*       1.7526315789E+01               0
GRID*               3949               0-1.300000000E+010.0000000000E+00+
*       1.7526315789E+01               0
GRID*               3950               0-1.500000000E+010.0000000000E+00+
*       1.7526315789E+01               0
GRID*               3951               0-1.700000000E+010.0000000000E+00+
*       1.7526315789E+01               0
GRID*               3952               0-1.900000000E+010.0000000000E+00+
*       1.7526315789E+01               0
GRID*               3953               0-2.100000000E+010.0000000000E+00+
*       1.7526315789E+01               0
GRID*               3954               0-2.300000000E+010.0000000000E+00+
*       1.7526315789E+01               0
GRID*               3955               0-2.500000000E+010.0000000000E+00+
*       1.7526315789E+01               0
GRID*               3956               0-2.700000000E+010.0000000000E+00+
*       1.7526315789E+01               0
GRID*               3957               0-2.900000000E+010.0000000000E+00+
*       1.7526315789E+01               0
GRID*               3958               0-3.100000000E+010.0000000000E+00+
*       1.7526315789E+01               0
GRID*               3959               0-3.300000000E+010.0000000000E+00+
*       1.7526315789E+01               0
GRID*               3960               0-3.500000000E+010.0000000000E+00+
*       1.7526315789E+01               0
GRID*               3961               0-3.700000000E+010.0000000000E+00+
*       1.7526315789E+01               0
GRID*               3962               0-3.900000000E+010.0000000000E+00+
*       1.7526315789E+01               0
GRID*               3963               0-4.100000000E+010.0000000000E+00+
*       1.7526315789E+01               0
GRID*               3964               0-4.300000000E+010.0000000000E+00+
*       1.7526315789E+01               0
GRID*               3965               0-4.500000000E+010.0000000000E+00+
*       1.7526315789E+01               0
GRID*               3966               0-4.700000000E+010.0000000000E+00+
*       1.7526315789E+01               0
GRID*               3967               0-4.900000000E+010.0000000000E+00+
*       1.7526315789E+01               0
GRID*               3968               0-5.100000000E+010.0000000000E+00+
*       1.7526315789E+01               0
GRID*               3969               0-5.300000000E+010.0000000000E+00+
*       1.7526315789E+01               0
GRID*               3970               0-5.500000000E+010.0000000000E+00+
*       1.7526315789E+01               0
GRID*               3971               0-5.700000000E+010.0000000000E+00+
*       1.7526315789E+01               0
GRID*               3972               0-5.900000000E+010.0000000000E+00+
*       1.7526315789E+01               0
GRID*               3973               0-6.100000000E+010.0000000000E+00+
*       1.7526315789E+01               0
GRID*               3974               0-6.300000000E+010.0000000000E+00+
*       1.7526315789E+01               0
GRID*               3975               0-6.500000000E+010.0000000000E+00+
*       1.7526315789E+01               0
GRID*               3976               0-6.700000000E+010.0000000000E+00+
*       1.7526315789E+01               0
GRID*               3977               0-6.900000000E+010.0000000000E+00+
*       1.7526315789E+01               0
GRID*               3978               0-7.100000000E+010.0000000000E+00+
*       1.7526315789E+01               0
GRID*               3979               0-7.300000000E+010.0000000000E+00+
*       1.7526315789E+01               0
GRID*               3980               0-7.400000000E+010.0000000000E+00+
*       1.6552631579E+01               0
GRID*               3981               0-7.400000000E+010.0000000000E+00+
*       1.4605263158E+01               0
GRID*               3982               0-7.400000000E+010.0000000000E+00+
*       1.2657894737E+01               0
GRID*               3983               0-7.400000000E+010.0000000000E+00+
*       1.0710526316E+01               0
GRID*               3984               0-7.400000000E+010.0000000000E+00+
*       8.7631578947E+00               0
GRID*               3985               0-7.400000000E+010.0000000000E+00+
*       6.8157894737E+00               0
GRID*               3986               0-7.400000000E+010.0000000000E+00+
*       4.8684210526E+00               0
GRID*               3987               0-7.400000000E+010.0000000000E+00+
*       2.9210526316E+00               0
GRID*               3988               0-7.400000000E+010.0000000000E+00+
*       9.7368421053E-01               0
GRID*               3989               0-7.400000000E+010.0000000000E+00+
*       -9.736842105E-01               0
GRID*               3990               0-7.400000000E+010.0000000000E+00+
*       -2.921052632E+00               0
GRID*               3991               0-7.400000000E+010.0000000000E+00+
*       -4.868421053E+00               0
GRID*               3992               0-7.400000000E+010.0000000000E+00+
*       -6.815789474E+00               0
GRID*               3993               0-7.400000000E+010.0000000000E+00+
*       -8.763157895E+00               0
GRID*               3994               0-7.400000000E+010.0000000000E+00+
*       -1.071052632E+01               0
GRID*               3995               0-7.400000000E+010.0000000000E+00+
*       -1.265789474E+01               0
GRID*               3996               0-7.400000000E+010.0000000000E+00+
*       -1.460526316E+01               0
GRID*               3997               0-7.400000000E+010.0000000000E+00+
*       -1.655263158E+01               0
GRID*               3998               0-7.300000000E+010.0000000000E+00+
*       -1.752631579E+01               0
GRID*               3999               0-7.100000000E+010.0000000000E+00+
*       -1.752631579E+01               0
GRID*               4000               0-6.900000000E+010.0000000000E+00+
*       -1.752631579E+01               0
GRID*               4001               0-6.700000000E+010.0000000000E+00+
*       -1.752631579E+01               0
GRID*               4002               0-6.500000000E+010.0000000000E+00+
*       -1.752631579E+01               0
GRID*               4003               0-6.300000000E+010.0000000000E+00+
*       -1.752631579E+01               0
GRID*               4004               0-6.100000000E+010.0000000000E+00+
*       -1.752631579E+01               0
GRID*               4005               0-5.900000000E+010.0000000000E+00+
*       -1.752631579E+01               0
GRID*               4006               0-5.700000000E+010.0000000000E+00+
*       -1.752631579E+01               0
GRID*               4007               0-5.500000000E+010.0000000000E+00+
*       -1.752631579E+01               0
GRID*               4008               0-5.300000000E+010.0000000000E+00+
*       -1.752631579E+01               0
GRID*               4009               0-5.100000000E+010.0000000000E+00+
*       -1.752631579E+01               0
GRID*               4010               0-4.900000000E+010.0000000000E+00+
*       -1.752631579E+01               0
GRID*               4011               0-4.700000000E+010.0000000000E+00+
*       -1.752631579E+01               0
GRID*               4012               0-4.500000000E+010.0000000000E+00+
*       -1.752631579E+01               0
GRID*               4013               0-4.300000000E+010.0000000000E+00+
*       -1.752631579E+01               0
GRID*               4014               0-4.100000000E+010.0000000000E+00+
*       -1.752631579E+01               0
GRID*               4015               0-3.900000000E+010.0000000000E+00+
*       -1.752631579E+01               0
GRID*               4016               0-3.700000000E+010.0000000000E+00+
*       -1.752631579E+01               0
GRID*               4017               0-3.500000000E+010.0000000000E+00+
*       -1.752631579E+01               0
GRID*               4018               0-3.300000000E+010.0000000000E+00+
*       -1.752631579E+01               0
GRID*               4019               0-3.100000000E+010.0000000000E+00+
*       -1.752631579E+01               0
GRID*               4020               0-2.900000000E+010.0000000000E+00+
*       -1.752631579E+01               0
GRID*               4021               0-2.700000000E+010.0000000000E+00+
*       -1.752631579E+01               0
GRID*               4022               0-2.500000000E+010.0000000000E+00+
*       -1.752631579E+01               0
GRID*               4023               0-2.300000000E+010.0000000000E+00+
*       -1.752631579E+01               0
GRID*               4024               0-2.100000000E+010.0000000000E+00+
*       -1.752631579E+01               0
GRID*               4025               0-1.900000000E+010.0000000000E+00+
*       -1.752631579E+01               0
GRID*               4026               0-1.700000000E+010.0000000000E+00+
*       -1.752631579E+01               0
GRID*               4027               0-1.500000000E+010.0000000000E+00+
*       -1.752631579E+01               0
GRID*               4028               0-1.300000000E+010.0000000000E+00+
*       -1.752631579E+01               0
GRID*               4029               0-1.100000000E+010.0000000000E+00+
*       -1.752631579E+01               0
GRID*               4030               0-9.000000000E+000.0000000000E+00+
*       -1.752631579E+01               0
GRID*               4031               0-7.000000000E+000.0000000000E+00+
*       -1.752631579E+01               0
GRID*               4032               0-5.000000000E+000.0000000000E+00+
*       -1.752631579E+01               0
GRID*               4033               0-3.000000000E+000.0000000000E+00+
*       -1.752631579E+01               0
GRID*               4034               0-1.000000000E+000.0000000000E+00+
*       -1.752631579E+01               0
GRID*               4035               01.0000000000E+000.0000000000E+00+
*       -1.752631579E+01               0
GRID*               4036               03.0000000000E+000.0000000000E+00+
*       -1.752631579E+01               0
GRID*               4037               05.0000000000E+000.0000000000E+00+
*       -1.752631579E+01               0
GRID*               4038               07.0000000000E+000.0000000000E+00+
*       -1.752631579E+01               0
GRID*               4039               09.0000000000E+000.0000000000E+00+
*       -1.752631579E+01               0
GRID*               4040               01.1000000000E+010.0000000000E+00+
*       -1.752631579E+01               0
GRID*               4041               01.3000000000E+010.0000000000E+00+
*       -1.752631579E+01               0
GRID*               4042               01.5000000000E+010.0000000000E+00+
*       -1.752631579E+01               0
GRID*               4043               01.7000000000E+010.0000000000E+00+
*       -1.752631579E+01               0
GRID*               4044               01.9000000000E+010.0000000000E+00+
*       -1.752631579E+01               0
GRID*               4045               02.1000000000E+010.0000000000E+00+
*       -1.752631579E+01               0
GRID*               4046               02.3000000000E+010.0000000000E+00+
*       -1.752631579E+01               0
GRID*               4047               02.5000000000E+010.0000000000E+00+
*       -1.752631579E+01               0
GRID*               4048               02.7000000000E+010.0000000000E+00+
*       -1.752631579E+01               0
GRID*               4049               02.9000000000E+010.0000000000E+00+
*       -1.752631579E+01               0
GRID*               4050               03.1000000000E+010.0000000000E+00+
*       -1.752631579E+01               0
GRID*               4051               03.3000000000E+010.0000000000E+00+
*       -1.752631579E+01               0
GRID*               4052               03.5000000000E+010.0000000000E+00+
*       -1.752631579E+01               0
GRID*               4053               03.7000000000E+010.0000000000E+00+
*       -1.752631579E+01               0
GRID*               4054               03.9000000000E+010.0000000000E+00+
*       -1.752631579E+01               0
GRID*               4055               04.1000000000E+010.0000000000E+00+
*       -1.752631579E+01               0
GRID*               4056               04.3000000000E+010.0000000000E+00+
*       -1.752631579E+01               0
GRID*               4057               04.5000000000E+010.0000000000E+00+
*       -1.752631579E+01               0
GRID*               4058               04.7000000000E+010.0000000000E+00+
*       -1.752631579E+01               0
GRID*               4059               04.9000000000E+010.0000000000E+00+
*       -1.752631579E+01               0
GRID*               4060               05.1000000000E+010.0000000000E+00+
*       -1.752631579E+01               0
GRID*               4061               05.3000000000E+010.0000000000E+00+
*       -1.752631579E+01               0
GRID*               4062               05.5000000000E+010.0000000000E+00+
*       -1.752631579E+01               0
GRID*               4063               05.7000000000E+010.0000000000E+00+
*       -1.752631579E+01               0
GRID*               4064               05.9000000000E+010.0000000000E+00+
*       -1.752631579E+01               0
GRID*               4065               06.1000000000E+010.0000000000E+00+
*       -1.752631579E+01               0
GRID*               4066               06.3000000000E+010.0000000000E+00+
*       -1.752631579E+01               0
GRID*               4067               06.5000000000E+010.0000000000E+00+
*       -1.752631579E+01               0
GRID*               4068               06.7000000000E+010.0000000000E+00+
*       -1.752631579E+01               0
GRID*               4069               06.9000000000E+010.0000000000E+00+
*       -1.752631579E+01               0
GRID*               4070               07.1000000000E+010.0000000000E+00+
*       -1.752631579E+01               0
GRID*               4071               07.3000000000E+010.0000000000E+00+
*       -1.752631579E+01               0
GRID*               4072               07.4000000000E+010.0000000000E+00+
*       -1.655263158E+01               0
GRID*               4073               07.4000000000E+010.0000000000E+00+
*       -1.460526316E+01               0
GRID*               4074               07.4000000000E+010.0000000000E+00+
*       -1.265789474E+01               0
GRID*               4075               07.4000000000E+010.0000000000E+00+
*       -1.071052632E+01               0
GRID*               4076               07.4000000000E+010.0000000000E+00+
*       -8.763157895E+00               0
GRID*               4077               07.4000000000E+010.0000000000E+00+
*       -6.815789474E+00               0
GRID*               4078               07.4000000000E+010.0000000000E+00+
*       -4.868421053E+00               0
GRID*               4079               07.4000000000E+010.0000000000E+00+
*       -2.921052632E+00               0
GRID*               4080               07.4000000000E+010.0000000000E+00+
*       -9.736842105E-01               0
GRID*               4081               07.4000000000E+010.0000000000E+00+
*       9.7368421053E-01               0
GRID*               4082               07.4000000000E+010.0000000000E+00+
*       2.9210526316E+00               0
GRID*               4083               07.4000000000E+010.0000000000E+00+
*       4.8684210526E+00               0
GRID*               4084               07.4000000000E+010.0000000000E+00+
*       6.8157894737E+00               0
GRID*               4085               07.4000000000E+010.0000000000E+00+
*       8.7631578947E+00               0
GRID*               4086               07.4000000000E+010.0000000000E+00+
*       1.0710526316E+01               0
GRID*               4087               07.4000000000E+010.0000000000E+00+
*       1.2657894737E+01               0
GRID*               4088               07.4000000000E+010.0000000000E+00+
*       1.4605263158E+01               0
GRID*               4089               0-7.300000000E+012.6464285714E+01+
*       -1.850000000E+01               0
GRID*               4090               0-7.300000000E+012.4428571429E+01+
*       -1.850000000E+01               0
GRID*               4091               0-7.300000000E+012.2392857143E+01+
*       -1.850000000E+01               0
GRID*               4092               0-7.300000000E+012.0357142857E+01+
*       -1.850000000E+01               0
GRID*               4093               0-7.300000000E+011.8321428571E+01+
*       -1.850000000E+01               0
GRID*               4094               0-7.300000000E+011.6285714286E+01+
*       -1.850000000E+01               0
GRID*               4095               0-7.300000000E+011.4250000000E+01+
*       -1.850000000E+01               0
GRID*               4096               0-7.300000000E+011.2214285714E+01+
*       -1.850000000E+01               0
GRID*               4097               0-7.300000000E+011.0178571429E+01+
*       -1.850000000E+01               0
GRID*               4098               0-7.300000000E+018.1428571429E+00+
*       -1.850000000E+01               0
GRID*               4099               0-7.300000000E+016.1071428571E+00+
*       -1.850000000E+01               0
GRID*               4100               0-7.300000000E+014.0714285714E+00+
*       -1.850000000E+01               0
GRID*               4101               0-7.300000000E+012.0357142857E+00+
*       -1.850000000E+01               0
GRID*               4102               0-7.100000000E+012.6464285714E+01+
*       -1.850000000E+01               0
GRID*               4103               0-7.100000000E+012.4428571429E+01+
*       -1.850000000E+01               0
GRID*               4104               0-7.100000000E+012.2392857143E+01+
*       -1.850000000E+01               0
GRID*               4105               0-7.100000000E+012.0357142857E+01+
*       -1.850000000E+01               0
GRID*               4106               0-7.100000000E+011.8321428571E+01+
*       -1.850000000E+01               0
GRID*               4107               0-7.100000000E+011.6285714286E+01+
*       -1.850000000E+01               0
GRID*               4108               0-7.100000000E+011.4250000000E+01+
*       -1.850000000E+01               0
GRID*               4109               0-7.100000000E+011.2214285714E+01+
*       -1.850000000E+01               0
GRID*               4110               0-7.100000000E+011.0178571429E+01+
*       -1.850000000E+01               0
GRID*               4111               0-7.100000000E+018.1428571429E+00+
*       -1.850000000E+01               0
GRID*               4112               0-7.100000000E+016.1071428571E+00+
*       -1.850000000E+01               0
GRID*               4113               0-7.100000000E+014.0714285714E+00+
*       -1.850000000E+01               0
GRID*               4114               0-7.100000000E+012.0357142857E+00+
*       -1.850000000E+01               0
GRID*               4115               0-6.900000000E+012.6464285714E+01+
*       -1.850000000E+01               0
GRID*               4116               0-6.900000000E+012.4428571429E+01+
*       -1.850000000E+01               0
GRID*               4117               0-6.900000000E+012.2392857143E+01+
*       -1.850000000E+01               0
GRID*               4118               0-6.900000000E+012.0357142857E+01+
*       -1.850000000E+01               0
GRID*               4119               0-6.900000000E+011.8321428571E+01+
*       -1.850000000E+01               0
GRID*               4120               0-6.900000000E+011.6285714286E+01+
*       -1.850000000E+01               0
GRID*               4121               0-6.900000000E+011.4250000000E+01+
*       -1.850000000E+01               0
GRID*               4122               0-6.900000000E+011.2214285714E+01+
*       -1.850000000E+01               0
GRID*               4123               0-6.900000000E+011.0178571429E+01+
*       -1.850000000E+01               0
GRID*               4124               0-6.900000000E+018.1428571429E+00+
*       -1.850000000E+01               0
GRID*               4125               0-6.900000000E+016.1071428571E+00+
*       -1.850000000E+01               0
GRID*               4126               0-6.900000000E+014.0714285714E+00+
*       -1.850000000E+01               0
GRID*               4127               0-6.900000000E+012.0357142857E+00+
*       -1.850000000E+01               0
GRID*               4128               0-6.700000000E+012.6464285714E+01+
*       -1.850000000E+01               0
GRID*               4129               0-6.700000000E+012.4428571429E+01+
*       -1.850000000E+01               0
GRID*               4130               0-6.700000000E+012.2392857143E+01+
*       -1.850000000E+01               0
GRID*               4131               0-6.700000000E+012.0357142857E+01+
*       -1.850000000E+01               0
GRID*               4132               0-6.700000000E+011.8321428571E+01+
*       -1.850000000E+01               0
GRID*               4133               0-6.700000000E+011.6285714286E+01+
*       -1.850000000E+01               0
GRID*               4134               0-6.700000000E+011.4250000000E+01+
*       -1.850000000E+01               0
GRID*               4135               0-6.700000000E+011.2214285714E+01+
*       -1.850000000E+01               0
GRID*               4136               0-6.700000000E+011.0178571429E+01+
*       -1.850000000E+01               0
GRID*               4137               0-6.700000000E+018.1428571429E+00+
*       -1.850000000E+01               0
GRID*               4138               0-6.700000000E+016.1071428571E+00+
*       -1.850000000E+01               0
GRID*               4139               0-6.700000000E+014.0714285714E+00+
*       -1.850000000E+01               0
GRID*               4140               0-6.700000000E+012.0357142857E+00+
*       -1.850000000E+01               0
GRID*               4141               0-6.500000000E+012.6464285714E+01+
*       -1.850000000E+01               0
GRID*               4142               0-6.500000000E+012.4428571429E+01+
*       -1.850000000E+01               0
GRID*               4143               0-6.500000000E+012.2392857143E+01+
*       -1.850000000E+01               0
GRID*               4144               0-6.500000000E+012.0357142857E+01+
*       -1.850000000E+01               0
GRID*               4145               0-6.500000000E+011.8321428571E+01+
*       -1.850000000E+01               0
GRID*               4146               0-6.500000000E+011.6285714286E+01+
*       -1.850000000E+01               0
GRID*               4147               0-6.500000000E+011.4250000000E+01+
*       -1.850000000E+01               0
GRID*               4148               0-6.500000000E+011.2214285714E+01+
*       -1.850000000E+01               0
GRID*               4149               0-6.500000000E+011.0178571429E+01+
*       -1.850000000E+01               0
GRID*               4150               0-6.500000000E+018.1428571429E+00+
*       -1.850000000E+01               0
GRID*               4151               0-6.500000000E+016.1071428571E+00+
*       -1.850000000E+01               0
GRID*               4152               0-6.500000000E+014.0714285714E+00+
*       -1.850000000E+01               0
GRID*               4153               0-6.500000000E+012.0357142857E+00+
*       -1.850000000E+01               0
GRID*               4154               0-6.300000000E+012.6464285714E+01+
*       -1.850000000E+01               0
GRID*               4155               0-6.300000000E+012.4428571429E+01+
*       -1.850000000E+01               0
GRID*               4156               0-6.300000000E+012.2392857143E+01+
*       -1.850000000E+01               0
GRID*               4157               0-6.300000000E+012.0357142857E+01+
*       -1.850000000E+01               0
GRID*               4158               0-6.300000000E+011.8321428571E+01+
*       -1.850000000E+01               0
GRID*               4159               0-6.300000000E+011.6285714286E+01+
*       -1.850000000E+01               0
GRID*               4160               0-6.300000000E+011.4250000000E+01+
*       -1.850000000E+01               0
GRID*               4161               0-6.300000000E+011.2214285714E+01+
*       -1.850000000E+01               0
GRID*               4162               0-6.300000000E+011.0178571429E+01+
*       -1.850000000E+01               0
GRID*               4163               0-6.300000000E+018.1428571429E+00+
*       -1.850000000E+01               0
GRID*               4164               0-6.300000000E+016.1071428571E+00+
*       -1.850000000E+01               0
GRID*               4165               0-6.300000000E+014.0714285714E+00+
*       -1.850000000E+01               0
GRID*               4166               0-6.300000000E+012.0357142857E+00+
*       -1.850000000E+01               0
GRID*               4167               0-6.100000000E+012.6464285714E+01+
*       -1.850000000E+01               0
GRID*               4168               0-6.100000000E+012.4428571429E+01+
*       -1.850000000E+01               0
GRID*               4169               0-6.100000000E+012.2392857143E+01+
*       -1.850000000E+01               0
GRID*               4170               0-6.100000000E+012.0357142857E+01+
*       -1.850000000E+01               0
GRID*               4171               0-6.100000000E+011.8321428571E+01+
*       -1.850000000E+01               0
GRID*               4172               0-6.100000000E+011.6285714286E+01+
*       -1.850000000E+01               0
GRID*               4173               0-6.100000000E+011.4250000000E+01+
*       -1.850000000E+01               0
GRID*               4174               0-6.100000000E+011.2214285714E+01+
*       -1.850000000E+01               0
GRID*               4175               0-6.100000000E+011.0178571429E+01+
*       -1.850000000E+01               0
GRID*               4176               0-6.100000000E+018.1428571429E+00+
*       -1.850000000E+01               0
GRID*               4177               0-6.100000000E+016.1071428571E+00+
*       -1.850000000E+01               0
GRID*               4178               0-6.100000000E+014.0714285714E+00+
*       -1.850000000E+01               0
GRID*               4179               0-6.100000000E+012.0357142857E+00+
*       -1.850000000E+01               0
GRID*               4180               0-5.900000000E+012.6464285714E+01+
*       -1.850000000E+01               0
GRID*               4181               0-5.900000000E+012.4428571429E+01+
*       -1.850000000E+01               0
GRID*               4182               0-5.900000000E+012.2392857143E+01+
*       -1.850000000E+01               0
GRID*               4183               0-5.900000000E+012.0357142857E+01+
*       -1.850000000E+01               0
GRID*               4184               0-5.900000000E+011.8321428571E+01+
*       -1.850000000E+01               0
GRID*               4185               0-5.900000000E+011.6285714286E+01+
*       -1.850000000E+01               0
GRID*               4186               0-5.900000000E+011.4250000000E+01+
*       -1.850000000E+01               0
GRID*               4187               0-5.900000000E+011.2214285714E+01+
*       -1.850000000E+01               0
GRID*               4188               0-5.900000000E+011.0178571429E+01+
*       -1.850000000E+01               0
GRID*               4189               0-5.900000000E+018.1428571429E+00+
*       -1.850000000E+01               0
GRID*               4190               0-5.900000000E+016.1071428571E+00+
*       -1.850000000E+01               0
GRID*               4191               0-5.900000000E+014.0714285714E+00+
*       -1.850000000E+01               0
GRID*               4192               0-5.900000000E+012.0357142857E+00+
*       -1.850000000E+01               0
GRID*               4193               0-5.700000000E+012.6464285714E+01+
*       -1.850000000E+01               0
GRID*               4194               0-5.700000000E+012.4428571429E+01+
*       -1.850000000E+01               0
GRID*               4195               0-5.700000000E+012.2392857143E+01+
*       -1.850000000E+01               0
GRID*               4196               0-5.700000000E+012.0357142857E+01+
*       -1.850000000E+01               0
GRID*               4197               0-5.700000000E+011.8321428571E+01+
*       -1.850000000E+01               0
GRID*               4198               0-5.700000000E+011.6285714286E+01+
*       -1.850000000E+01               0
GRID*               4199               0-5.700000000E+011.4250000000E+01+
*       -1.850000000E+01               0
GRID*               4200               0-5.700000000E+011.2214285714E+01+
*       -1.850000000E+01               0
GRID*               4201               0-5.700000000E+011.0178571429E+01+
*       -1.850000000E+01               0
GRID*               4202               0-5.700000000E+018.1428571429E+00+
*       -1.850000000E+01               0
GRID*               4203               0-5.700000000E+016.1071428571E+00+
*       -1.850000000E+01               0
GRID*               4204               0-5.700000000E+014.0714285714E+00+
*       -1.850000000E+01               0
GRID*               4205               0-5.700000000E+012.0357142857E+00+
*       -1.850000000E+01               0
GRID*               4206               0-5.500000000E+012.6464285714E+01+
*       -1.850000000E+01               0
GRID*               4207               0-5.500000000E+012.4428571429E+01+
*       -1.850000000E+01               0
GRID*               4208               0-5.500000000E+012.2392857143E+01+
*       -1.850000000E+01               0
GRID*               4209               0-5.500000000E+012.0357142857E+01+
*       -1.850000000E+01               0
GRID*               4210               0-5.500000000E+011.8321428571E+01+
*       -1.850000000E+01               0
GRID*               4211               0-5.500000000E+011.6285714286E+01+
*       -1.850000000E+01               0
GRID*               4212               0-5.500000000E+011.4250000000E+01+
*       -1.850000000E+01               0
GRID*               4213               0-5.500000000E+011.2214285714E+01+
*       -1.850000000E+01               0
GRID*               4214               0-5.500000000E+011.0178571429E+01+
*       -1.850000000E+01               0
GRID*               4215               0-5.500000000E+018.1428571429E+00+
*       -1.850000000E+01               0
GRID*               4216               0-5.500000000E+016.1071428571E+00+
*       -1.850000000E+01               0
GRID*               4217               0-5.500000000E+014.0714285714E+00+
*       -1.850000000E+01               0
GRID*               4218               0-5.500000000E+012.0357142857E+00+
*       -1.850000000E+01               0
GRID*               4219               0-5.300000000E+012.6464285714E+01+
*       -1.850000000E+01               0
GRID*               4220               0-5.300000000E+012.4428571429E+01+
*       -1.850000000E+01               0
GRID*               4221               0-5.300000000E+012.2392857143E+01+
*       -1.850000000E+01               0
GRID*               4222               0-5.300000000E+012.0357142857E+01+
*       -1.850000000E+01               0
GRID*               4223               0-5.300000000E+011.8321428571E+01+
*       -1.850000000E+01               0
GRID*               4224               0-5.300000000E+011.6285714286E+01+
*       -1.850000000E+01               0
GRID*               4225               0-5.300000000E+011.4250000000E+01+
*       -1.850000000E+01               0
GRID*               4226               0-5.300000000E+011.2214285714E+01+
*       -1.850000000E+01               0
GRID*               4227               0-5.300000000E+011.0178571429E+01+
*       -1.850000000E+01               0
GRID*               4228               0-5.300000000E+018.1428571429E+00+
*       -1.850000000E+01               0
GRID*               4229               0-5.300000000E+016.1071428571E+00+
*       -1.850000000E+01               0
GRID*               4230               0-5.300000000E+014.0714285714E+00+
*       -1.850000000E+01               0
GRID*               4231               0-5.300000000E+012.0357142857E+00+
*       -1.850000000E+01               0
GRID*               4232               0-5.100000000E+012.6464285714E+01+
*       -1.850000000E+01               0
GRID*               4233               0-5.100000000E+012.4428571429E+01+
*       -1.850000000E+01               0
GRID*               4234               0-5.100000000E+012.2392857143E+01+
*       -1.850000000E+01               0
GRID*               4235               0-5.100000000E+012.0357142857E+01+
*       -1.850000000E+01               0
GRID*               4236               0-5.100000000E+011.8321428571E+01+
*       -1.850000000E+01               0
GRID*               4237               0-5.100000000E+011.6285714286E+01+
*       -1.850000000E+01               0
GRID*               4238               0-5.100000000E+011.4250000000E+01+
*       -1.850000000E+01               0
GRID*               4239               0-5.100000000E+011.2214285714E+01+
*       -1.850000000E+01               0
GRID*               4240               0-5.100000000E+011.0178571429E+01+
*       -1.850000000E+01               0
GRID*               4241               0-5.100000000E+018.1428571429E+00+
*       -1.850000000E+01               0
GRID*               4242               0-5.100000000E+016.1071428571E+00+
*       -1.850000000E+01               0
GRID*               4243               0-5.100000000E+014.0714285714E+00+
*       -1.850000000E+01               0
GRID*               4244               0-5.100000000E+012.0357142857E+00+
*       -1.850000000E+01               0
GRID*               4245               0-4.900000000E+012.6464285714E+01+
*       -1.850000000E+01               0
GRID*               4246               0-4.900000000E+012.4428571429E+01+
*       -1.850000000E+01               0
GRID*               4247               0-4.900000000E+012.2392857143E+01+
*       -1.850000000E+01               0
GRID*               4248               0-4.900000000E+012.0357142857E+01+
*       -1.850000000E+01               0
GRID*               4249               0-4.900000000E+011.8321428571E+01+
*       -1.850000000E+01               0
GRID*               4250               0-4.900000000E+011.6285714286E+01+
*       -1.850000000E+01               0
GRID*               4251               0-4.900000000E+011.4250000000E+01+
*       -1.850000000E+01               0
GRID*               4252               0-4.900000000E+011.2214285714E+01+
*       -1.850000000E+01               0
GRID*               4253               0-4.900000000E+011.0178571429E+01+
*       -1.850000000E+01               0
GRID*               4254               0-4.900000000E+018.1428571429E+00+
*       -1.850000000E+01               0
GRID*               4255               0-4.900000000E+016.1071428571E+00+
*       -1.850000000E+01               0
GRID*               4256               0-4.900000000E+014.0714285714E+00+
*       -1.850000000E+01               0
GRID*               4257               0-4.900000000E+012.0357142857E+00+
*       -1.850000000E+01               0
GRID*               4258               0-4.700000000E+012.6464285714E+01+
*       -1.850000000E+01               0
GRID*               4259               0-4.700000000E+012.4428571429E+01+
*       -1.850000000E+01               0
GRID*               4260               0-4.700000000E+012.2392857143E+01+
*       -1.850000000E+01               0
GRID*               4261               0-4.700000000E+012.0357142857E+01+
*       -1.850000000E+01               0
GRID*               4262               0-4.700000000E+011.8321428571E+01+
*       -1.850000000E+01               0
GRID*               4263               0-4.700000000E+011.6285714286E+01+
*       -1.850000000E+01               0
GRID*               4264               0-4.700000000E+011.4250000000E+01+
*       -1.850000000E+01               0
GRID*               4265               0-4.700000000E+011.2214285714E+01+
*       -1.850000000E+01               0
GRID*               4266               0-4.700000000E+011.0178571429E+01+
*       -1.850000000E+01               0
GRID*               4267               0-4.700000000E+018.1428571429E+00+
*       -1.850000000E+01               0
GRID*               4268               0-4.700000000E+016.1071428571E+00+
*       -1.850000000E+01               0
GRID*               4269               0-4.700000000E+014.0714285714E+00+
*       -1.850000000E+01               0
GRID*               4270               0-4.700000000E+012.0357142857E+00+
*       -1.850000000E+01               0
GRID*               4271               0-4.500000000E+012.6464285714E+01+
*       -1.850000000E+01               0
GRID*               4272               0-4.500000000E+012.4428571429E+01+
*       -1.850000000E+01               0
GRID*               4273               0-4.500000000E+012.2392857143E+01+
*       -1.850000000E+01               0
GRID*               4274               0-4.500000000E+012.0357142857E+01+
*       -1.850000000E+01               0
GRID*               4275               0-4.500000000E+011.8321428571E+01+
*       -1.850000000E+01               0
GRID*               4276               0-4.500000000E+011.6285714286E+01+
*       -1.850000000E+01               0
GRID*               4277               0-4.500000000E+011.4250000000E+01+
*       -1.850000000E+01               0
GRID*               4278               0-4.500000000E+011.2214285714E+01+
*       -1.850000000E+01               0
GRID*               4279               0-4.500000000E+011.0178571429E+01+
*       -1.850000000E+01               0
GRID*               4280               0-4.500000000E+018.1428571429E+00+
*       -1.850000000E+01               0
GRID*               4281               0-4.500000000E+016.1071428571E+00+
*       -1.850000000E+01               0
GRID*               4282               0-4.500000000E+014.0714285714E+00+
*       -1.850000000E+01               0
GRID*               4283               0-4.500000000E+012.0357142857E+00+
*       -1.850000000E+01               0
GRID*               4284               0-4.300000000E+012.6464285714E+01+
*       -1.850000000E+01               0
GRID*               4285               0-4.300000000E+012.4428571429E+01+
*       -1.850000000E+01               0
GRID*               4286               0-4.300000000E+012.2392857143E+01+
*       -1.850000000E+01               0
GRID*               4287               0-4.300000000E+012.0357142857E+01+
*       -1.850000000E+01               0
GRID*               4288               0-4.300000000E+011.8321428571E+01+
*       -1.850000000E+01               0
GRID*               4289               0-4.300000000E+011.6285714286E+01+
*       -1.850000000E+01               0
GRID*               4290               0-4.300000000E+011.4250000000E+01+
*       -1.850000000E+01               0
GRID*               4291               0-4.300000000E+011.2214285714E+01+
*       -1.850000000E+01               0
GRID*               4292               0-4.300000000E+011.0178571429E+01+
*       -1.850000000E+01               0
GRID*               4293               0-4.300000000E+018.1428571429E+00+
*       -1.850000000E+01               0
GRID*               4294               0-4.300000000E+016.1071428571E+00+
*       -1.850000000E+01               0
GRID*               4295               0-4.300000000E+014.0714285714E+00+
*       -1.850000000E+01               0
GRID*               4296               0-4.300000000E+012.0357142857E+00+
*       -1.850000000E+01               0
GRID*               4297               0-4.100000000E+012.6464285714E+01+
*       -1.850000000E+01               0
GRID*               4298               0-4.100000000E+012.4428571429E+01+
*       -1.850000000E+01               0
GRID*               4299               0-4.100000000E+012.2392857143E+01+
*       -1.850000000E+01               0
GRID*               4300               0-4.100000000E+012.0357142857E+01+
*       -1.850000000E+01               0
GRID*               4301               0-4.100000000E+011.8321428571E+01+
*       -1.850000000E+01               0
GRID*               4302               0-4.100000000E+011.6285714286E+01+
*       -1.850000000E+01               0
GRID*               4303               0-4.100000000E+011.4250000000E+01+
*       -1.850000000E+01               0
GRID*               4304               0-4.100000000E+011.2214285714E+01+
*       -1.850000000E+01               0
GRID*               4305               0-4.100000000E+011.0178571429E+01+
*       -1.850000000E+01               0
GRID*               4306               0-4.100000000E+018.1428571429E+00+
*       -1.850000000E+01               0
GRID*               4307               0-4.100000000E+016.1071428571E+00+
*       -1.850000000E+01               0
GRID*               4308               0-4.100000000E+014.0714285714E+00+
*       -1.850000000E+01               0
GRID*               4309               0-4.100000000E+012.0357142857E+00+
*       -1.850000000E+01               0
GRID*               4310               0-3.900000000E+012.6464285714E+01+
*       -1.850000000E+01               0
GRID*               4311               0-3.900000000E+012.4428571429E+01+
*       -1.850000000E+01               0
GRID*               4312               0-3.900000000E+012.2392857143E+01+
*       -1.850000000E+01               0
GRID*               4313               0-3.900000000E+012.0357142857E+01+
*       -1.850000000E+01               0
GRID*               4314               0-3.900000000E+011.8321428571E+01+
*       -1.850000000E+01               0
GRID*               4315               0-3.900000000E+011.6285714286E+01+
*       -1.850000000E+01               0
GRID*               4316               0-3.900000000E+011.4250000000E+01+
*       -1.850000000E+01               0
GRID*               4317               0-3.900000000E+011.2214285714E+01+
*       -1.850000000E+01               0
GRID*               4318               0-3.900000000E+011.0178571429E+01+
*       -1.850000000E+01               0
GRID*               4319               0-3.900000000E+018.1428571429E+00+
*       -1.850000000E+01               0
GRID*               4320               0-3.900000000E+016.1071428571E+00+
*       -1.850000000E+01               0
GRID*               4321               0-3.900000000E+014.0714285714E+00+
*       -1.850000000E+01               0
GRID*               4322               0-3.900000000E+012.0357142857E+00+
*       -1.850000000E+01               0
GRID*               4323               0-3.700000000E+012.6464285714E+01+
*       -1.850000000E+01               0
GRID*               4324               0-3.700000000E+012.4428571429E+01+
*       -1.850000000E+01               0
GRID*               4325               0-3.700000000E+012.2392857143E+01+
*       -1.850000000E+01               0
GRID*               4326               0-3.700000000E+012.0357142857E+01+
*       -1.850000000E+01               0
GRID*               4327               0-3.700000000E+011.8321428571E+01+
*       -1.850000000E+01               0
GRID*               4328               0-3.700000000E+011.6285714286E+01+
*       -1.850000000E+01               0
GRID*               4329               0-3.700000000E+011.4250000000E+01+
*       -1.850000000E+01               0
GRID*               4330               0-3.700000000E+011.2214285714E+01+
*       -1.850000000E+01               0
GRID*               4331               0-3.700000000E+011.0178571429E+01+
*       -1.850000000E+01               0
GRID*               4332               0-3.700000000E+018.1428571429E+00+
*       -1.850000000E+01               0
GRID*               4333               0-3.700000000E+016.1071428571E+00+
*       -1.850000000E+01               0
GRID*               4334               0-3.700000000E+014.0714285714E+00+
*       -1.850000000E+01               0
GRID*               4335               0-3.700000000E+012.0357142857E+00+
*       -1.850000000E+01               0
GRID*               4336               0-3.500000000E+012.6464285714E+01+
*       -1.850000000E+01               0
GRID*               4337               0-3.500000000E+012.4428571429E+01+
*       -1.850000000E+01               0
GRID*               4338               0-3.500000000E+012.2392857143E+01+
*       -1.850000000E+01               0
GRID*               4339               0-3.500000000E+012.0357142857E+01+
*       -1.850000000E+01               0
GRID*               4340               0-3.500000000E+011.8321428571E+01+
*       -1.850000000E+01               0
GRID*               4341               0-3.500000000E+011.6285714286E+01+
*       -1.850000000E+01               0
GRID*               4342               0-3.500000000E+011.4250000000E+01+
*       -1.850000000E+01               0
GRID*               4343               0-3.500000000E+011.2214285714E+01+
*       -1.850000000E+01               0
GRID*               4344               0-3.500000000E+011.0178571429E+01+
*       -1.850000000E+01               0
GRID*               4345               0-3.500000000E+018.1428571429E+00+
*       -1.850000000E+01               0
GRID*               4346               0-3.500000000E+016.1071428571E+00+
*       -1.850000000E+01               0
GRID*               4347               0-3.500000000E+014.0714285714E+00+
*       -1.850000000E+01               0
GRID*               4348               0-3.500000000E+012.0357142857E+00+
*       -1.850000000E+01               0
GRID*               4349               0-3.300000000E+012.6464285714E+01+
*       -1.850000000E+01               0
GRID*               4350               0-3.300000000E+012.4428571429E+01+
*       -1.850000000E+01               0
GRID*               4351               0-3.300000000E+012.2392857143E+01+
*       -1.850000000E+01               0
GRID*               4352               0-3.300000000E+012.0357142857E+01+
*       -1.850000000E+01               0
GRID*               4353               0-3.300000000E+011.8321428571E+01+
*       -1.850000000E+01               0
GRID*               4354               0-3.300000000E+011.6285714286E+01+
*       -1.850000000E+01               0
GRID*               4355               0-3.300000000E+011.4250000000E+01+
*       -1.850000000E+01               0
GRID*               4356               0-3.300000000E+011.2214285714E+01+
*       -1.850000000E+01               0
GRID*               4357               0-3.300000000E+011.0178571429E+01+
*       -1.850000000E+01               0
GRID*               4358               0-3.300000000E+018.1428571429E+00+
*       -1.850000000E+01               0
GRID*               4359               0-3.300000000E+016.1071428571E+00+
*       -1.850000000E+01               0
GRID*               4360               0-3.300000000E+014.0714285714E+00+
*       -1.850000000E+01               0
GRID*               4361               0-3.300000000E+012.0357142857E+00+
*       -1.850000000E+01               0
GRID*               4362               0-3.100000000E+012.6464285714E+01+
*       -1.850000000E+01               0
GRID*               4363               0-3.100000000E+012.4428571429E+01+
*       -1.850000000E+01               0
GRID*               4364               0-3.100000000E+012.2392857143E+01+
*       -1.850000000E+01               0
GRID*               4365               0-3.100000000E+012.0357142857E+01+
*       -1.850000000E+01               0
GRID*               4366               0-3.100000000E+011.8321428571E+01+
*       -1.850000000E+01               0
GRID*               4367               0-3.100000000E+011.6285714286E+01+
*       -1.850000000E+01               0
GRID*               4368               0-3.100000000E+011.4250000000E+01+
*       -1.850000000E+01               0
GRID*               4369               0-3.100000000E+011.2214285714E+01+
*       -1.850000000E+01               0
GRID*               4370               0-3.100000000E+011.0178571429E+01+
*       -1.850000000E+01               0
GRID*               4371               0-3.100000000E+018.1428571429E+00+
*       -1.850000000E+01               0
GRID*               4372               0-3.100000000E+016.1071428571E+00+
*       -1.850000000E+01               0
GRID*               4373               0-3.100000000E+014.0714285714E+00+
*       -1.850000000E+01               0
GRID*               4374               0-3.100000000E+012.0357142857E+00+
*       -1.850000000E+01               0
GRID*               4375               0-2.900000000E+012.6464285714E+01+
*       -1.850000000E+01               0
GRID*               4376               0-2.900000000E+012.4428571429E+01+
*       -1.850000000E+01               0
GRID*               4377               0-2.900000000E+012.2392857143E+01+
*       -1.850000000E+01               0
GRID*               4378               0-2.900000000E+012.0357142857E+01+
*       -1.850000000E+01               0
GRID*               4379               0-2.900000000E+011.8321428571E+01+
*       -1.850000000E+01               0
GRID*               4380               0-2.900000000E+011.6285714286E+01+
*       -1.850000000E+01               0
GRID*               4381               0-2.900000000E+011.4250000000E+01+
*       -1.850000000E+01               0
GRID*               4382               0-2.900000000E+011.2214285714E+01+
*       -1.850000000E+01               0
GRID*               4383               0-2.900000000E+011.0178571429E+01+
*       -1.850000000E+01               0
GRID*               4384               0-2.900000000E+018.1428571429E+00+
*       -1.850000000E+01               0
GRID*               4385               0-2.900000000E+016.1071428571E+00+
*       -1.850000000E+01               0
GRID*               4386               0-2.900000000E+014.0714285714E+00+
*       -1.850000000E+01               0
GRID*               4387               0-2.900000000E+012.0357142857E+00+
*       -1.850000000E+01               0
GRID*               4388               0-2.700000000E+012.6464285714E+01+
*       -1.850000000E+01               0
GRID*               4389               0-2.700000000E+012.4428571429E+01+
*       -1.850000000E+01               0
GRID*               4390               0-2.700000000E+012.2392857143E+01+
*       -1.850000000E+01               0
GRID*               4391               0-2.700000000E+012.0357142857E+01+
*       -1.850000000E+01               0
GRID*               4392               0-2.700000000E+011.8321428571E+01+
*       -1.850000000E+01               0
GRID*               4393               0-2.700000000E+011.6285714286E+01+
*       -1.850000000E+01               0
GRID*               4394               0-2.700000000E+011.4250000000E+01+
*       -1.850000000E+01               0
GRID*               4395               0-2.700000000E+011.2214285714E+01+
*       -1.850000000E+01               0
GRID*               4396               0-2.700000000E+011.0178571429E+01+
*       -1.850000000E+01               0
GRID*               4397               0-2.700000000E+018.1428571429E+00+
*       -1.850000000E+01               0
GRID*               4398               0-2.700000000E+016.1071428571E+00+
*       -1.850000000E+01               0
GRID*               4399               0-2.700000000E+014.0714285714E+00+
*       -1.850000000E+01               0
GRID*               4400               0-2.700000000E+012.0357142857E+00+
*       -1.850000000E+01               0
GRID*               4401               0-2.500000000E+012.6464285714E+01+
*       -1.850000000E+01               0
GRID*               4402               0-2.500000000E+012.4428571429E+01+
*       -1.850000000E+01               0
GRID*               4403               0-2.500000000E+012.2392857143E+01+
*       -1.850000000E+01               0
GRID*               4404               0-2.500000000E+012.0357142857E+01+
*       -1.850000000E+01               0
GRID*               4405               0-2.500000000E+011.8321428571E+01+
*       -1.850000000E+01               0
GRID*               4406               0-2.500000000E+011.6285714286E+01+
*       -1.850000000E+01               0
GRID*               4407               0-2.500000000E+011.4250000000E+01+
*       -1.850000000E+01               0
GRID*               4408               0-2.500000000E+011.2214285714E+01+
*       -1.850000000E+01               0
GRID*               4409               0-2.500000000E+011.0178571429E+01+
*       -1.850000000E+01               0
GRID*               4410               0-2.500000000E+018.1428571429E+00+
*       -1.850000000E+01               0
GRID*               4411               0-2.500000000E+016.1071428571E+00+
*       -1.850000000E+01               0
GRID*               4412               0-2.500000000E+014.0714285714E+00+
*       -1.850000000E+01               0
GRID*               4413               0-2.500000000E+012.0357142857E+00+
*       -1.850000000E+01               0
GRID*               4414               0-2.300000000E+012.6464285714E+01+
*       -1.850000000E+01               0
GRID*               4415               0-2.300000000E+012.4428571429E+01+
*       -1.850000000E+01               0
GRID*               4416               0-2.300000000E+012.2392857143E+01+
*       -1.850000000E+01               0
GRID*               4417               0-2.300000000E+012.0357142857E+01+
*       -1.850000000E+01               0
GRID*               4418               0-2.300000000E+011.8321428571E+01+
*       -1.850000000E+01               0
GRID*               4419               0-2.300000000E+011.6285714286E+01+
*       -1.850000000E+01               0
GRID*               4420               0-2.300000000E+011.4250000000E+01+
*       -1.850000000E+01               0
GRID*               4421               0-2.300000000E+011.2214285714E+01+
*       -1.850000000E+01               0
GRID*               4422               0-2.300000000E+011.0178571429E+01+
*       -1.850000000E+01               0
GRID*               4423               0-2.300000000E+018.1428571429E+00+
*       -1.850000000E+01               0
GRID*               4424               0-2.300000000E+016.1071428571E+00+
*       -1.850000000E+01               0
GRID*               4425               0-2.300000000E+014.0714285714E+00+
*       -1.850000000E+01               0
GRID*               4426               0-2.300000000E+012.0357142857E+00+
*       -1.850000000E+01               0
GRID*               4427               0-2.100000000E+012.6464285714E+01+
*       -1.850000000E+01               0
GRID*               4428               0-2.100000000E+012.4428571429E+01+
*       -1.850000000E+01               0
GRID*               4429               0-2.100000000E+012.2392857143E+01+
*       -1.850000000E+01               0
GRID*               4430               0-2.100000000E+012.0357142857E+01+
*       -1.850000000E+01               0
GRID*               4431               0-2.100000000E+011.8321428571E+01+
*       -1.850000000E+01               0
GRID*               4432               0-2.100000000E+011.6285714286E+01+
*       -1.850000000E+01               0
GRID*               4433               0-2.100000000E+011.4250000000E+01+
*       -1.850000000E+01               0
GRID*               4434               0-2.100000000E+011.2214285714E+01+
*       -1.850000000E+01               0
GRID*               4435               0-2.100000000E+011.0178571429E+01+
*       -1.850000000E+01               0
GRID*               4436               0-2.100000000E+018.1428571429E+00+
*       -1.850000000E+01               0
GRID*               4437               0-2.100000000E+016.1071428571E+00+
*       -1.850000000E+01               0
GRID*               4438               0-2.100000000E+014.0714285714E+00+
*       -1.850000000E+01               0
GRID*               4439               0-2.100000000E+012.0357142857E+00+
*       -1.850000000E+01               0
GRID*               4440               0-1.900000000E+012.6464285714E+01+
*       -1.850000000E+01               0
GRID*               4441               0-1.900000000E+012.4428571429E+01+
*       -1.850000000E+01               0
GRID*               4442               0-1.900000000E+012.2392857143E+01+
*       -1.850000000E+01               0
GRID*               4443               0-1.900000000E+012.0357142857E+01+
*       -1.850000000E+01               0
GRID*               4444               0-1.900000000E+011.8321428571E+01+
*       -1.850000000E+01               0
GRID*               4445               0-1.900000000E+011.6285714286E+01+
*       -1.850000000E+01               0
GRID*               4446               0-1.900000000E+011.4250000000E+01+
*       -1.850000000E+01               0
GRID*               4447               0-1.900000000E+011.2214285714E+01+
*       -1.850000000E+01               0
GRID*               4448               0-1.900000000E+011.0178571429E+01+
*       -1.850000000E+01               0
GRID*               4449               0-1.900000000E+018.1428571429E+00+
*       -1.850000000E+01               0
GRID*               4450               0-1.900000000E+016.1071428571E+00+
*       -1.850000000E+01               0
GRID*               4451               0-1.900000000E+014.0714285714E+00+
*       -1.850000000E+01               0
GRID*               4452               0-1.900000000E+012.0357142857E+00+
*       -1.850000000E+01               0
GRID*               4453               0-1.700000000E+012.6464285714E+01+
*       -1.850000000E+01               0
GRID*               4454               0-1.700000000E+012.4428571429E+01+
*       -1.850000000E+01               0
GRID*               4455               0-1.700000000E+012.2392857143E+01+
*       -1.850000000E+01               0
GRID*               4456               0-1.700000000E+012.0357142857E+01+
*       -1.850000000E+01               0
GRID*               4457               0-1.700000000E+011.8321428571E+01+
*       -1.850000000E+01               0
GRID*               4458               0-1.700000000E+011.6285714286E+01+
*       -1.850000000E+01               0
GRID*               4459               0-1.700000000E+011.4250000000E+01+
*       -1.850000000E+01               0
GRID*               4460               0-1.700000000E+011.2214285714E+01+
*       -1.850000000E+01               0
GRID*               4461               0-1.700000000E+011.0178571429E+01+
*       -1.850000000E+01               0
GRID*               4462               0-1.700000000E+018.1428571429E+00+
*       -1.850000000E+01               0
GRID*               4463               0-1.700000000E+016.1071428571E+00+
*       -1.850000000E+01               0
GRID*               4464               0-1.700000000E+014.0714285714E+00+
*       -1.850000000E+01               0
GRID*               4465               0-1.700000000E+012.0357142857E+00+
*       -1.850000000E+01               0
GRID*               4466               0-1.500000000E+012.6464285714E+01+
*       -1.850000000E+01               0
GRID*               4467               0-1.500000000E+012.4428571429E+01+
*       -1.850000000E+01               0
GRID*               4468               0-1.500000000E+012.2392857143E+01+
*       -1.850000000E+01               0
GRID*               4469               0-1.500000000E+012.0357142857E+01+
*       -1.850000000E+01               0
GRID*               4470               0-1.500000000E+011.8321428571E+01+
*       -1.850000000E+01               0
GRID*               4471               0-1.500000000E+011.6285714286E+01+
*       -1.850000000E+01               0
GRID*               4472               0-1.500000000E+011.4250000000E+01+
*       -1.850000000E+01               0
GRID*               4473               0-1.500000000E+011.2214285714E+01+
*       -1.850000000E+01               0
GRID*               4474               0-1.500000000E+011.0178571429E+01+
*       -1.850000000E+01               0
GRID*               4475               0-1.500000000E+018.1428571429E+00+
*       -1.850000000E+01               0
GRID*               4476               0-1.500000000E+016.1071428571E+00+
*       -1.850000000E+01               0
GRID*               4477               0-1.500000000E+014.0714285714E+00+
*       -1.850000000E+01               0
GRID*               4478               0-1.500000000E+012.0357142857E+00+
*       -1.850000000E+01               0
GRID*               4479               0-1.300000000E+012.6464285714E+01+
*       -1.850000000E+01               0
GRID*               4480               0-1.300000000E+012.4428571429E+01+
*       -1.850000000E+01               0
GRID*               4481               0-1.300000000E+012.2392857143E+01+
*       -1.850000000E+01               0
GRID*               4482               0-1.300000000E+012.0357142857E+01+
*       -1.850000000E+01               0
GRID*               4483               0-1.300000000E+011.8321428571E+01+
*       -1.850000000E+01               0
GRID*               4484               0-1.300000000E+011.6285714286E+01+
*       -1.850000000E+01               0
GRID*               4485               0-1.300000000E+011.4250000000E+01+
*       -1.850000000E+01               0
GRID*               4486               0-1.300000000E+011.2214285714E+01+
*       -1.850000000E+01               0
GRID*               4487               0-1.300000000E+011.0178571429E+01+
*       -1.850000000E+01               0
GRID*               4488               0-1.300000000E+018.1428571429E+00+
*       -1.850000000E+01               0
GRID*               4489               0-1.300000000E+016.1071428571E+00+
*       -1.850000000E+01               0
GRID*               4490               0-1.300000000E+014.0714285714E+00+
*       -1.850000000E+01               0
GRID*               4491               0-1.300000000E+012.0357142857E+00+
*       -1.850000000E+01               0
GRID*               4492               0-1.100000000E+012.6464285714E+01+
*       -1.850000000E+01               0
GRID*               4493               0-1.100000000E+012.4428571429E+01+
*       -1.850000000E+01               0
GRID*               4494               0-1.100000000E+012.2392857143E+01+
*       -1.850000000E+01               0
GRID*               4495               0-1.100000000E+012.0357142857E+01+
*       -1.850000000E+01               0
GRID*               4496               0-1.100000000E+011.8321428571E+01+
*       -1.850000000E+01               0
GRID*               4497               0-1.100000000E+011.6285714286E+01+
*       -1.850000000E+01               0
GRID*               4498               0-1.100000000E+011.4250000000E+01+
*       -1.850000000E+01               0
GRID*               4499               0-1.100000000E+011.2214285714E+01+
*       -1.850000000E+01               0
GRID*               4500               0-1.100000000E+011.0178571429E+01+
*       -1.850000000E+01               0
GRID*               4501               0-1.100000000E+018.1428571429E+00+
*       -1.850000000E+01               0
GRID*               4502               0-1.100000000E+016.1071428571E+00+
*       -1.850000000E+01               0
GRID*               4503               0-1.100000000E+014.0714285714E+00+
*       -1.850000000E+01               0
GRID*               4504               0-1.100000000E+012.0357142857E+00+
*       -1.850000000E+01               0
GRID*               4505               0-9.000000000E+002.6464285714E+01+
*       -1.850000000E+01               0
GRID*               4506               0-9.000000000E+002.4428571429E+01+
*       -1.850000000E+01               0
GRID*               4507               0-9.000000000E+002.2392857143E+01+
*       -1.850000000E+01               0
GRID*               4508               0-9.000000000E+002.0357142857E+01+
*       -1.850000000E+01               0
GRID*               4509               0-9.000000000E+001.8321428571E+01+
*       -1.850000000E+01               0
GRID*               4510               0-9.000000000E+001.6285714286E+01+
*       -1.850000000E+01               0
GRID*               4511               0-9.000000000E+001.4250000000E+01+
*       -1.850000000E+01               0
GRID*               4512               0-9.000000000E+001.2214285714E+01+
*       -1.850000000E+01               0
GRID*               4513               0-9.000000000E+001.0178571429E+01+
*       -1.850000000E+01               0
GRID*               4514               0-9.000000000E+008.1428571429E+00+
*       -1.850000000E+01               0
GRID*               4515               0-9.000000000E+006.1071428571E+00+
*       -1.850000000E+01               0
GRID*               4516               0-9.000000000E+004.0714285714E+00+
*       -1.850000000E+01               0
GRID*               4517               0-9.000000000E+002.0357142857E+00+
*       -1.850000000E+01               0
GRID*               4518               0-7.000000000E+002.6464285714E+01+
*       -1.850000000E+01               0
GRID*               4519               0-7.000000000E+002.4428571429E+01+
*       -1.850000000E+01               0
GRID*               4520               0-7.000000000E+002.2392857143E+01+
*       -1.850000000E+01               0
GRID*               4521               0-7.000000000E+002.0357142857E+01+
*       -1.850000000E+01               0
GRID*               4522               0-7.000000000E+001.8321428571E+01+
*       -1.850000000E+01               0
GRID*               4523               0-7.000000000E+001.6285714286E+01+
*       -1.850000000E+01               0
GRID*               4524               0-7.000000000E+001.4250000000E+01+
*       -1.850000000E+01               0
GRID*               4525               0-7.000000000E+001.2214285714E+01+
*       -1.850000000E+01               0
GRID*               4526               0-7.000000000E+001.0178571429E+01+
*       -1.850000000E+01               0
GRID*               4527               0-7.000000000E+008.1428571429E+00+
*       -1.850000000E+01               0
GRID*               4528               0-7.000000000E+006.1071428571E+00+
*       -1.850000000E+01               0
GRID*               4529               0-7.000000000E+004.0714285714E+00+
*       -1.850000000E+01               0
GRID*               4530               0-7.000000000E+002.0357142857E+00+
*       -1.850000000E+01               0
GRID*               4531               0-5.000000000E+002.6464285714E+01+
*       -1.850000000E+01               0
GRID*               4532               0-5.000000000E+002.4428571429E+01+
*       -1.850000000E+01               0
GRID*               4533               0-5.000000000E+002.2392857143E+01+
*       -1.850000000E+01               0
GRID*               4534               0-5.000000000E+002.0357142857E+01+
*       -1.850000000E+01               0
GRID*               4535               0-5.000000000E+001.8321428571E+01+
*       -1.850000000E+01               0
GRID*               4536               0-5.000000000E+001.6285714286E+01+
*       -1.850000000E+01               0
GRID*               4537               0-5.000000000E+001.4250000000E+01+
*       -1.850000000E+01               0
GRID*               4538               0-5.000000000E+001.2214285714E+01+
*       -1.850000000E+01               0
GRID*               4539               0-5.000000000E+001.0178571429E+01+
*       -1.850000000E+01               0
GRID*               4540               0-5.000000000E+008.1428571429E+00+
*       -1.850000000E+01               0
GRID*               4541               0-5.000000000E+006.1071428571E+00+
*       -1.850000000E+01               0
GRID*               4542               0-5.000000000E+004.0714285714E+00+
*       -1.850000000E+01               0
GRID*               4543               0-5.000000000E+002.0357142857E+00+
*       -1.850000000E+01               0
GRID*               4544               0-3.000000000E+002.6464285714E+01+
*       -1.850000000E+01               0
GRID*               4545               0-3.000000000E+002.4428571429E+01+
*       -1.850000000E+01               0
GRID*               4546               0-3.000000000E+002.2392857143E+01+
*       -1.850000000E+01               0
GRID*               4547               0-3.000000000E+002.0357142857E+01+
*       -1.850000000E+01               0
GRID*               4548               0-3.000000000E+001.8321428571E+01+
*       -1.850000000E+01               0
GRID*               4549               0-3.000000000E+001.6285714286E+01+
*       -1.850000000E+01               0
GRID*               4550               0-3.000000000E+001.4250000000E+01+
*       -1.850000000E+01               0
GRID*               4551               0-3.000000000E+001.2214285714E+01+
*       -1.850000000E+01               0
GRID*               4552               0-3.000000000E+001.0178571429E+01+
*       -1.850000000E+01               0
GRID*               4553               0-3.000000000E+008.1428571429E+00+
*       -1.850000000E+01               0
GRID*               4554               0-3.000000000E+006.1071428571E+00+
*       -1.850000000E+01               0
GRID*               4555               0-3.000000000E+004.0714285714E+00+
*       -1.850000000E+01               0
GRID*               4556               0-3.000000000E+002.0357142857E+00+
*       -1.850000000E+01               0
GRID*               4557               0-1.000000000E+002.6464285714E+01+
*       -1.850000000E+01               0
GRID*               4558               0-1.000000000E+002.4428571429E+01+
*       -1.850000000E+01               0
GRID*               4559               0-1.000000000E+002.2392857143E+01+
*       -1.850000000E+01               0
GRID*               4560               0-1.000000000E+002.0357142857E+01+
*       -1.850000000E+01               0
GRID*               4561               0-1.000000000E+001.8321428571E+01+
*       -1.850000000E+01               0
GRID*               4562               0-1.000000000E+001.6285714286E+01+
*       -1.850000000E+01               0
GRID*               4563               0-1.000000000E+001.4250000000E+01+
*       -1.850000000E+01               0
GRID*               4564               0-1.000000000E+001.2214285714E+01+
*       -1.850000000E+01               0
GRID*               4565               0-1.000000000E+001.0178571429E+01+
*       -1.850000000E+01               0
GRID*               4566               0-1.000000000E+008.1428571429E+00+
*       -1.850000000E+01               0
GRID*               4567               0-1.000000000E+006.1071428571E+00+
*       -1.850000000E+01               0
GRID*               4568               0-1.000000000E+004.0714285714E+00+
*       -1.850000000E+01               0
GRID*               4569               0-1.000000000E+002.0357142857E+00+
*       -1.850000000E+01               0
GRID*               4570               01.0000000000E+002.6464285714E+01+
*       -1.850000000E+01               0
GRID*               4571               01.0000000000E+002.4428571429E+01+
*       -1.850000000E+01               0
GRID*               4572               01.0000000000E+002.2392857143E+01+
*       -1.850000000E+01               0
GRID*               4573               01.0000000000E+002.0357142857E+01+
*       -1.850000000E+01               0
GRID*               4574               01.0000000000E+001.8321428571E+01+
*       -1.850000000E+01               0
GRID*               4575               01.0000000000E+001.6285714286E+01+
*       -1.850000000E+01               0
GRID*               4576               01.0000000000E+001.4250000000E+01+
*       -1.850000000E+01               0
GRID*               4577               01.0000000000E+001.2214285714E+01+
*       -1.850000000E+01               0
GRID*               4578               01.0000000000E+001.0178571429E+01+
*       -1.850000000E+01               0
GRID*               4579               01.0000000000E+008.1428571429E+00+
*       -1.850000000E+01               0
GRID*               4580               01.0000000000E+006.1071428571E+00+
*       -1.850000000E+01               0
GRID*               4581               01.0000000000E+004.0714285714E+00+
*       -1.850000000E+01               0
GRID*               4582               01.0000000000E+002.0357142857E+00+
*       -1.850000000E+01               0
GRID*               4583               03.0000000000E+002.6464285714E+01+
*       -1.850000000E+01               0
GRID*               4584               03.0000000000E+002.4428571429E+01+
*       -1.850000000E+01               0
GRID*               4585               03.0000000000E+002.2392857143E+01+
*       -1.850000000E+01               0
GRID*               4586               03.0000000000E+002.0357142857E+01+
*       -1.850000000E+01               0
GRID*               4587               03.0000000000E+001.8321428571E+01+
*       -1.850000000E+01               0
GRID*               4588               03.0000000000E+001.6285714286E+01+
*       -1.850000000E+01               0
GRID*               4589               03.0000000000E+001.4250000000E+01+
*       -1.850000000E+01               0
GRID*               4590               03.0000000000E+001.2214285714E+01+
*       -1.850000000E+01               0
GRID*               4591               03.0000000000E+001.0178571429E+01+
*       -1.850000000E+01               0
GRID*               4592               03.0000000000E+008.1428571429E+00+
*       -1.850000000E+01               0
GRID*               4593               03.0000000000E+006.1071428571E+00+
*       -1.850000000E+01               0
GRID*               4594               03.0000000000E+004.0714285714E+00+
*       -1.850000000E+01               0
GRID*               4595               03.0000000000E+002.0357142857E+00+
*       -1.850000000E+01               0
GRID*               4596               05.0000000000E+002.6464285714E+01+
*       -1.850000000E+01               0
GRID*               4597               05.0000000000E+002.4428571429E+01+
*       -1.850000000E+01               0
GRID*               4598               05.0000000000E+002.2392857143E+01+
*       -1.850000000E+01               0
GRID*               4599               05.0000000000E+002.0357142857E+01+
*       -1.850000000E+01               0
GRID*               4600               05.0000000000E+001.8321428571E+01+
*       -1.850000000E+01               0
GRID*               4601               05.0000000000E+001.6285714286E+01+
*       -1.850000000E+01               0
GRID*               4602               05.0000000000E+001.4250000000E+01+
*       -1.850000000E+01               0
GRID*               4603               05.0000000000E+001.2214285714E+01+
*       -1.850000000E+01               0
GRID*               4604               05.0000000000E+001.0178571429E+01+
*       -1.850000000E+01               0
GRID*               4605               05.0000000000E+008.1428571429E+00+
*       -1.850000000E+01               0
GRID*               4606               05.0000000000E+006.1071428571E+00+
*       -1.850000000E+01               0
GRID*               4607               05.0000000000E+004.0714285714E+00+
*       -1.850000000E+01               0
GRID*               4608               05.0000000000E+002.0357142857E+00+
*       -1.850000000E+01               0
GRID*               4609               07.0000000000E+002.6464285714E+01+
*       -1.850000000E+01               0
GRID*               4610               07.0000000000E+002.4428571429E+01+
*       -1.850000000E+01               0
GRID*               4611               07.0000000000E+002.2392857143E+01+
*       -1.850000000E+01               0
GRID*               4612               07.0000000000E+002.0357142857E+01+
*       -1.850000000E+01               0
GRID*               4613               07.0000000000E+001.8321428571E+01+
*       -1.850000000E+01               0
GRID*               4614               07.0000000000E+001.6285714286E+01+
*       -1.850000000E+01               0
GRID*               4615               07.0000000000E+001.4250000000E+01+
*       -1.850000000E+01               0
GRID*               4616               07.0000000000E+001.2214285714E+01+
*       -1.850000000E+01               0
GRID*               4617               07.0000000000E+001.0178571429E+01+
*       -1.850000000E+01               0
GRID*               4618               07.0000000000E+008.1428571429E+00+
*       -1.850000000E+01               0
GRID*               4619               07.0000000000E+006.1071428571E+00+
*       -1.850000000E+01               0
GRID*               4620               07.0000000000E+004.0714285714E+00+
*       -1.850000000E+01               0
GRID*               4621               07.0000000000E+002.0357142857E+00+
*       -1.850000000E+01               0
GRID*               4622               09.0000000000E+002.6464285714E+01+
*       -1.850000000E+01               0
GRID*               4623               09.0000000000E+002.4428571429E+01+
*       -1.850000000E+01               0
GRID*               4624               09.0000000000E+002.2392857143E+01+
*       -1.850000000E+01               0
GRID*               4625               09.0000000000E+002.0357142857E+01+
*       -1.850000000E+01               0
GRID*               4626               09.0000000000E+001.8321428571E+01+
*       -1.850000000E+01               0
GRID*               4627               09.0000000000E+001.6285714286E+01+
*       -1.850000000E+01               0
GRID*               4628               09.0000000000E+001.4250000000E+01+
*       -1.850000000E+01               0
GRID*               4629               09.0000000000E+001.2214285714E+01+
*       -1.850000000E+01               0
GRID*               4630               09.0000000000E+001.0178571429E+01+
*       -1.850000000E+01               0
GRID*               4631               09.0000000000E+008.1428571429E+00+
*       -1.850000000E+01               0
GRID*               4632               09.0000000000E+006.1071428571E+00+
*       -1.850000000E+01               0
GRID*               4633               09.0000000000E+004.0714285714E+00+
*       -1.850000000E+01               0
GRID*               4634               09.0000000000E+002.0357142857E+00+
*       -1.850000000E+01               0
GRID*               4635               01.1000000000E+012.6464285714E+01+
*       -1.850000000E+01               0
GRID*               4636               01.1000000000E+012.4428571429E+01+
*       -1.850000000E+01               0
GRID*               4637               01.1000000000E+012.2392857143E+01+
*       -1.850000000E+01               0
GRID*               4638               01.1000000000E+012.0357142857E+01+
*       -1.850000000E+01               0
GRID*               4639               01.1000000000E+011.8321428571E+01+
*       -1.850000000E+01               0
GRID*               4640               01.1000000000E+011.6285714286E+01+
*       -1.850000000E+01               0
GRID*               4641               01.1000000000E+011.4250000000E+01+
*       -1.850000000E+01               0
GRID*               4642               01.1000000000E+011.2214285714E+01+
*       -1.850000000E+01               0
GRID*               4643               01.1000000000E+011.0178571429E+01+
*       -1.850000000E+01               0
GRID*               4644               01.1000000000E+018.1428571429E+00+
*       -1.850000000E+01               0
GRID*               4645               01.1000000000E+016.1071428571E+00+
*       -1.850000000E+01               0
GRID*               4646               01.1000000000E+014.0714285714E+00+
*       -1.850000000E+01               0
GRID*               4647               01.1000000000E+012.0357142857E+00+
*       -1.850000000E+01               0
GRID*               4648               01.3000000000E+012.6464285714E+01+
*       -1.850000000E+01               0
GRID*               4649               01.3000000000E+012.4428571429E+01+
*       -1.850000000E+01               0
GRID*               4650               01.3000000000E+012.2392857143E+01+
*       -1.850000000E+01               0
GRID*               4651               01.3000000000E+012.0357142857E+01+
*       -1.850000000E+01               0
GRID*               4652               01.3000000000E+011.8321428571E+01+
*       -1.850000000E+01               0
GRID*               4653               01.3000000000E+011.6285714286E+01+
*       -1.850000000E+01               0
GRID*               4654               01.3000000000E+011.4250000000E+01+
*       -1.850000000E+01               0
GRID*               4655               01.3000000000E+011.2214285714E+01+
*       -1.850000000E+01               0
GRID*               4656               01.3000000000E+011.0178571429E+01+
*       -1.850000000E+01               0
GRID*               4657               01.3000000000E+018.1428571429E+00+
*       -1.850000000E+01               0
GRID*               4658               01.3000000000E+016.1071428571E+00+
*       -1.850000000E+01               0
GRID*               4659               01.3000000000E+014.0714285714E+00+
*       -1.850000000E+01               0
GRID*               4660               01.3000000000E+012.0357142857E+00+
*       -1.850000000E+01               0
GRID*               4661               01.5000000000E+012.6464285714E+01+
*       -1.850000000E+01               0
GRID*               4662               01.5000000000E+012.4428571429E+01+
*       -1.850000000E+01               0
GRID*               4663               01.5000000000E+012.2392857143E+01+
*       -1.850000000E+01               0
GRID*               4664               01.5000000000E+012.0357142857E+01+
*       -1.850000000E+01               0
GRID*               4665               01.5000000000E+011.8321428571E+01+
*       -1.850000000E+01               0
GRID*               4666               01.5000000000E+011.6285714286E+01+
*       -1.850000000E+01               0
GRID*               4667               01.5000000000E+011.4250000000E+01+
*       -1.850000000E+01               0
GRID*               4668               01.5000000000E+011.2214285714E+01+
*       -1.850000000E+01               0
GRID*               4669               01.5000000000E+011.0178571429E+01+
*       -1.850000000E+01               0
GRID*               4670               01.5000000000E+018.1428571429E+00+
*       -1.850000000E+01               0
GRID*               4671               01.5000000000E+016.1071428571E+00+
*       -1.850000000E+01               0
GRID*               4672               01.5000000000E+014.0714285714E+00+
*       -1.850000000E+01               0
GRID*               4673               01.5000000000E+012.0357142857E+00+
*       -1.850000000E+01               0
GRID*               4674               01.7000000000E+012.6464285714E+01+
*       -1.850000000E+01               0
GRID*               4675               01.7000000000E+012.4428571429E+01+
*       -1.850000000E+01               0
GRID*               4676               01.7000000000E+012.2392857143E+01+
*       -1.850000000E+01               0
GRID*               4677               01.7000000000E+012.0357142857E+01+
*       -1.850000000E+01               0
GRID*               4678               01.7000000000E+011.8321428571E+01+
*       -1.850000000E+01               0
GRID*               4679               01.7000000000E+011.6285714286E+01+
*       -1.850000000E+01               0
GRID*               4680               01.7000000000E+011.4250000000E+01+
*       -1.850000000E+01               0
GRID*               4681               01.7000000000E+011.2214285714E+01+
*       -1.850000000E+01               0
GRID*               4682               01.7000000000E+011.0178571429E+01+
*       -1.850000000E+01               0
GRID*               4683               01.7000000000E+018.1428571429E+00+
*       -1.850000000E+01               0
GRID*               4684               01.7000000000E+016.1071428571E+00+
*       -1.850000000E+01               0
GRID*               4685               01.7000000000E+014.0714285714E+00+
*       -1.850000000E+01               0
GRID*               4686               01.7000000000E+012.0357142857E+00+
*       -1.850000000E+01               0
GRID*               4687               01.9000000000E+012.6464285714E+01+
*       -1.850000000E+01               0
GRID*               4688               01.9000000000E+012.4428571429E+01+
*       -1.850000000E+01               0
GRID*               4689               01.9000000000E+012.2392857143E+01+
*       -1.850000000E+01               0
GRID*               4690               01.9000000000E+012.0357142857E+01+
*       -1.850000000E+01               0
GRID*               4691               01.9000000000E+011.8321428571E+01+
*       -1.850000000E+01               0
GRID*               4692               01.9000000000E+011.6285714286E+01+
*       -1.850000000E+01               0
GRID*               4693               01.9000000000E+011.4250000000E+01+
*       -1.850000000E+01               0
GRID*               4694               01.9000000000E+011.2214285714E+01+
*       -1.850000000E+01               0
GRID*               4695               01.9000000000E+011.0178571429E+01+
*       -1.850000000E+01               0
GRID*               4696               01.9000000000E+018.1428571429E+00+
*       -1.850000000E+01               0
GRID*               4697               01.9000000000E+016.1071428571E+00+
*       -1.850000000E+01               0
GRID*               4698               01.9000000000E+014.0714285714E+00+
*       -1.850000000E+01               0
GRID*               4699               01.9000000000E+012.0357142857E+00+
*       -1.850000000E+01               0
GRID*               4700               02.1000000000E+012.6464285714E+01+
*       -1.850000000E+01               0
GRID*               4701               02.1000000000E+012.4428571429E+01+
*       -1.850000000E+01               0
GRID*               4702               02.1000000000E+012.2392857143E+01+
*       -1.850000000E+01               0
GRID*               4703               02.1000000000E+012.0357142857E+01+
*       -1.850000000E+01               0
GRID*               4704               02.1000000000E+011.8321428571E+01+
*       -1.850000000E+01               0
GRID*               4705               02.1000000000E+011.6285714286E+01+
*       -1.850000000E+01               0
GRID*               4706               02.1000000000E+011.4250000000E+01+
*       -1.850000000E+01               0
GRID*               4707               02.1000000000E+011.2214285714E+01+
*       -1.850000000E+01               0
GRID*               4708               02.1000000000E+011.0178571429E+01+
*       -1.850000000E+01               0
GRID*               4709               02.1000000000E+018.1428571429E+00+
*       -1.850000000E+01               0
GRID*               4710               02.1000000000E+016.1071428571E+00+
*       -1.850000000E+01               0
GRID*               4711               02.1000000000E+014.0714285714E+00+
*       -1.850000000E+01               0
GRID*               4712               02.1000000000E+012.0357142857E+00+
*       -1.850000000E+01               0
GRID*               4713               02.3000000000E+012.6464285714E+01+
*       -1.850000000E+01               0
GRID*               4714               02.3000000000E+012.4428571429E+01+
*       -1.850000000E+01               0
GRID*               4715               02.3000000000E+012.2392857143E+01+
*       -1.850000000E+01               0
GRID*               4716               02.3000000000E+012.0357142857E+01+
*       -1.850000000E+01               0
GRID*               4717               02.3000000000E+011.8321428571E+01+
*       -1.850000000E+01               0
GRID*               4718               02.3000000000E+011.6285714286E+01+
*       -1.850000000E+01               0
GRID*               4719               02.3000000000E+011.4250000000E+01+
*       -1.850000000E+01               0
GRID*               4720               02.3000000000E+011.2214285714E+01+
*       -1.850000000E+01               0
GRID*               4721               02.3000000000E+011.0178571429E+01+
*       -1.850000000E+01               0
GRID*               4722               02.3000000000E+018.1428571429E+00+
*       -1.850000000E+01               0
GRID*               4723               02.3000000000E+016.1071428571E+00+
*       -1.850000000E+01               0
GRID*               4724               02.3000000000E+014.0714285714E+00+
*       -1.850000000E+01               0
GRID*               4725               02.3000000000E+012.0357142857E+00+
*       -1.850000000E+01               0
GRID*               4726               02.5000000000E+012.6464285714E+01+
*       -1.850000000E+01               0
GRID*               4727               02.5000000000E+012.4428571429E+01+
*       -1.850000000E+01               0
GRID*               4728               02.5000000000E+012.2392857143E+01+
*       -1.850000000E+01               0
GRID*               4729               02.5000000000E+012.0357142857E+01+
*       -1.850000000E+01               0
GRID*               4730               02.5000000000E+011.8321428571E+01+
*       -1.850000000E+01               0
GRID*               4731               02.5000000000E+011.6285714286E+01+
*       -1.850000000E+01               0
GRID*               4732               02.5000000000E+011.4250000000E+01+
*       -1.850000000E+01               0
GRID*               4733               02.5000000000E+011.2214285714E+01+
*       -1.850000000E+01               0
GRID*               4734               02.5000000000E+011.0178571429E+01+
*       -1.850000000E+01               0
GRID*               4735               02.5000000000E+018.1428571429E+00+
*       -1.850000000E+01               0
GRID*               4736               02.5000000000E+016.1071428571E+00+
*       -1.850000000E+01               0
GRID*               4737               02.5000000000E+014.0714285714E+00+
*       -1.850000000E+01               0
GRID*               4738               02.5000000000E+012.0357142857E+00+
*       -1.850000000E+01               0
GRID*               4739               02.7000000000E+012.6464285714E+01+
*       -1.850000000E+01               0
GRID*               4740               02.7000000000E+012.4428571429E+01+
*       -1.850000000E+01               0
GRID*               4741               02.7000000000E+012.2392857143E+01+
*       -1.850000000E+01               0
GRID*               4742               02.7000000000E+012.0357142857E+01+
*       -1.850000000E+01               0
GRID*               4743               02.7000000000E+011.8321428571E+01+
*       -1.850000000E+01               0
GRID*               4744               02.7000000000E+011.6285714286E+01+
*       -1.850000000E+01               0
GRID*               4745               02.7000000000E+011.4250000000E+01+
*       -1.850000000E+01               0
GRID*               4746               02.7000000000E+011.2214285714E+01+
*       -1.850000000E+01               0
GRID*               4747               02.7000000000E+011.0178571429E+01+
*       -1.850000000E+01               0
GRID*               4748               02.7000000000E+018.1428571429E+00+
*       -1.850000000E+01               0
GRID*               4749               02.7000000000E+016.1071428571E+00+
*       -1.850000000E+01               0
GRID*               4750               02.7000000000E+014.0714285714E+00+
*       -1.850000000E+01               0
GRID*               4751               02.7000000000E+012.0357142857E+00+
*       -1.850000000E+01               0
GRID*               4752               02.9000000000E+012.6464285714E+01+
*       -1.850000000E+01               0
GRID*               4753               02.9000000000E+012.4428571429E+01+
*       -1.850000000E+01               0
GRID*               4754               02.9000000000E+012.2392857143E+01+
*       -1.850000000E+01               0
GRID*               4755               02.9000000000E+012.0357142857E+01+
*       -1.850000000E+01               0
GRID*               4756               02.9000000000E+011.8321428571E+01+
*       -1.850000000E+01               0
GRID*               4757               02.9000000000E+011.6285714286E+01+
*       -1.850000000E+01               0
GRID*               4758               02.9000000000E+011.4250000000E+01+
*       -1.850000000E+01               0
GRID*               4759               02.9000000000E+011.2214285714E+01+
*       -1.850000000E+01               0
GRID*               4760               02.9000000000E+011.0178571429E+01+
*       -1.850000000E+01               0
GRID*               4761               02.9000000000E+018.1428571429E+00+
*       -1.850000000E+01               0
GRID*               4762               02.9000000000E+016.1071428571E+00+
*       -1.850000000E+01               0
GRID*               4763               02.9000000000E+014.0714285714E+00+
*       -1.850000000E+01               0
GRID*               4764               02.9000000000E+012.0357142857E+00+
*       -1.850000000E+01               0
GRID*               4765               03.1000000000E+012.6464285714E+01+
*       -1.850000000E+01               0
GRID*               4766               03.1000000000E+012.4428571429E+01+
*       -1.850000000E+01               0
GRID*               4767               03.1000000000E+012.2392857143E+01+
*       -1.850000000E+01               0
GRID*               4768               03.1000000000E+012.0357142857E+01+
*       -1.850000000E+01               0
GRID*               4769               03.1000000000E+011.8321428571E+01+
*       -1.850000000E+01               0
GRID*               4770               03.1000000000E+011.6285714286E+01+
*       -1.850000000E+01               0
GRID*               4771               03.1000000000E+011.4250000000E+01+
*       -1.850000000E+01               0
GRID*               4772               03.1000000000E+011.2214285714E+01+
*       -1.850000000E+01               0
GRID*               4773               03.1000000000E+011.0178571429E+01+
*       -1.850000000E+01               0
GRID*               4774               03.1000000000E+018.1428571429E+00+
*       -1.850000000E+01               0
GRID*               4775               03.1000000000E+016.1071428571E+00+
*       -1.850000000E+01               0
GRID*               4776               03.1000000000E+014.0714285714E+00+
*       -1.850000000E+01               0
GRID*               4777               03.1000000000E+012.0357142857E+00+
*       -1.850000000E+01               0
GRID*               4778               03.3000000000E+012.6464285714E+01+
*       -1.850000000E+01               0
GRID*               4779               03.3000000000E+012.4428571429E+01+
*       -1.850000000E+01               0
GRID*               4780               03.3000000000E+012.2392857143E+01+
*       -1.850000000E+01               0
GRID*               4781               03.3000000000E+012.0357142857E+01+
*       -1.850000000E+01               0
GRID*               4782               03.3000000000E+011.8321428571E+01+
*       -1.850000000E+01               0
GRID*               4783               03.3000000000E+011.6285714286E+01+
*       -1.850000000E+01               0
GRID*               4784               03.3000000000E+011.4250000000E+01+
*       -1.850000000E+01               0
GRID*               4785               03.3000000000E+011.2214285714E+01+
*       -1.850000000E+01               0
GRID*               4786               03.3000000000E+011.0178571429E+01+
*       -1.850000000E+01               0
GRID*               4787               03.3000000000E+018.1428571429E+00+
*       -1.850000000E+01               0
GRID*               4788               03.3000000000E+016.1071428571E+00+
*       -1.850000000E+01               0
GRID*               4789               03.3000000000E+014.0714285714E+00+
*       -1.850000000E+01               0
GRID*               4790               03.3000000000E+012.0357142857E+00+
*       -1.850000000E+01               0
GRID*               4791               03.5000000000E+012.6464285714E+01+
*       -1.850000000E+01               0
GRID*               4792               03.5000000000E+012.4428571429E+01+
*       -1.850000000E+01               0
GRID*               4793               03.5000000000E+012.2392857143E+01+
*       -1.850000000E+01               0
GRID*               4794               03.5000000000E+012.0357142857E+01+
*       -1.850000000E+01               0
GRID*               4795               03.5000000000E+011.8321428571E+01+
*       -1.850000000E+01               0
GRID*               4796               03.5000000000E+011.6285714286E+01+
*       -1.850000000E+01               0
GRID*               4797               03.5000000000E+011.4250000000E+01+
*       -1.850000000E+01               0
GRID*               4798               03.5000000000E+011.2214285714E+01+
*       -1.850000000E+01               0
GRID*               4799               03.5000000000E+011.0178571429E+01+
*       -1.850000000E+01               0
GRID*               4800               03.5000000000E+018.1428571429E+00+
*       -1.850000000E+01               0
GRID*               4801               03.5000000000E+016.1071428571E+00+
*       -1.850000000E+01               0
GRID*               4802               03.5000000000E+014.0714285714E+00+
*       -1.850000000E+01               0
GRID*               4803               03.5000000000E+012.0357142857E+00+
*       -1.850000000E+01               0
GRID*               4804               03.7000000000E+012.6464285714E+01+
*       -1.850000000E+01               0
GRID*               4805               03.7000000000E+012.4428571429E+01+
*       -1.850000000E+01               0
GRID*               4806               03.7000000000E+012.2392857143E+01+
*       -1.850000000E+01               0
GRID*               4807               03.7000000000E+012.0357142857E+01+
*       -1.850000000E+01               0
GRID*               4808               03.7000000000E+011.8321428571E+01+
*       -1.850000000E+01               0
GRID*               4809               03.7000000000E+011.6285714286E+01+
*       -1.850000000E+01               0
GRID*               4810               03.7000000000E+011.4250000000E+01+
*       -1.850000000E+01               0
GRID*               4811               03.7000000000E+011.2214285714E+01+
*       -1.850000000E+01               0
GRID*               4812               03.7000000000E+011.0178571429E+01+
*       -1.850000000E+01               0
GRID*               4813               03.7000000000E+018.1428571429E+00+
*       -1.850000000E+01               0
GRID*               4814               03.7000000000E+016.1071428571E+00+
*       -1.850000000E+01               0
GRID*               4815               03.7000000000E+014.0714285714E+00+
*       -1.850000000E+01               0
GRID*               4816               03.7000000000E+012.0357142857E+00+
*       -1.850000000E+01               0
GRID*               4817               03.9000000000E+012.6464285714E+01+
*       -1.850000000E+01               0
GRID*               4818               03.9000000000E+012.4428571429E+01+
*       -1.850000000E+01               0
GRID*               4819               03.9000000000E+012.2392857143E+01+
*       -1.850000000E+01               0
GRID*               4820               03.9000000000E+012.0357142857E+01+
*       -1.850000000E+01               0
GRID*               4821               03.9000000000E+011.8321428571E+01+
*       -1.850000000E+01               0
GRID*               4822               03.9000000000E+011.6285714286E+01+
*       -1.850000000E+01               0
GRID*               4823               03.9000000000E+011.4250000000E+01+
*       -1.850000000E+01               0
GRID*               4824               03.9000000000E+011.2214285714E+01+
*       -1.850000000E+01               0
GRID*               4825               03.9000000000E+011.0178571429E+01+
*       -1.850000000E+01               0
GRID*               4826               03.9000000000E+018.1428571429E+00+
*       -1.850000000E+01               0
GRID*               4827               03.9000000000E+016.1071428571E+00+
*       -1.850000000E+01               0
GRID*               4828               03.9000000000E+014.0714285714E+00+
*       -1.850000000E+01               0
GRID*               4829               03.9000000000E+012.0357142857E+00+
*       -1.850000000E+01               0
GRID*               4830               04.1000000000E+012.6464285714E+01+
*       -1.850000000E+01               0
GRID*               4831               04.1000000000E+012.4428571429E+01+
*       -1.850000000E+01               0
GRID*               4832               04.1000000000E+012.2392857143E+01+
*       -1.850000000E+01               0
GRID*               4833               04.1000000000E+012.0357142857E+01+
*       -1.850000000E+01               0
GRID*               4834               04.1000000000E+011.8321428571E+01+
*       -1.850000000E+01               0
GRID*               4835               04.1000000000E+011.6285714286E+01+
*       -1.850000000E+01               0
GRID*               4836               04.1000000000E+011.4250000000E+01+
*       -1.850000000E+01               0
GRID*               4837               04.1000000000E+011.2214285714E+01+
*       -1.850000000E+01               0
GRID*               4838               04.1000000000E+011.0178571429E+01+
*       -1.850000000E+01               0
GRID*               4839               04.1000000000E+018.1428571429E+00+
*       -1.850000000E+01               0
GRID*               4840               04.1000000000E+016.1071428571E+00+
*       -1.850000000E+01               0
GRID*               4841               04.1000000000E+014.0714285714E+00+
*       -1.850000000E+01               0
GRID*               4842               04.1000000000E+012.0357142857E+00+
*       -1.850000000E+01               0
GRID*               4843               04.3000000000E+012.6464285714E+01+
*       -1.850000000E+01               0
GRID*               4844               04.3000000000E+012.4428571429E+01+
*       -1.850000000E+01               0
GRID*               4845               04.3000000000E+012.2392857143E+01+
*       -1.850000000E+01               0
GRID*               4846               04.3000000000E+012.0357142857E+01+
*       -1.850000000E+01               0
GRID*               4847               04.3000000000E+011.8321428571E+01+
*       -1.850000000E+01               0
GRID*               4848               04.3000000000E+011.6285714286E+01+
*       -1.850000000E+01               0
GRID*               4849               04.3000000000E+011.4250000000E+01+
*       -1.850000000E+01               0
GRID*               4850               04.3000000000E+011.2214285714E+01+
*       -1.850000000E+01               0
GRID*               4851               04.3000000000E+011.0178571429E+01+
*       -1.850000000E+01               0
GRID*               4852               04.3000000000E+018.1428571429E+00+
*       -1.850000000E+01               0
GRID*               4853               04.3000000000E+016.1071428571E+00+
*       -1.850000000E+01               0
GRID*               4854               04.3000000000E+014.0714285714E+00+
*       -1.850000000E+01               0
GRID*               4855               04.3000000000E+012.0357142857E+00+
*       -1.850000000E+01               0
GRID*               4856               04.5000000000E+012.6464285714E+01+
*       -1.850000000E+01               0
GRID*               4857               04.5000000000E+012.4428571429E+01+
*       -1.850000000E+01               0
GRID*               4858               04.5000000000E+012.2392857143E+01+
*       -1.850000000E+01               0
GRID*               4859               04.5000000000E+012.0357142857E+01+
*       -1.850000000E+01               0
GRID*               4860               04.5000000000E+011.8321428571E+01+
*       -1.850000000E+01               0
GRID*               4861               04.5000000000E+011.6285714286E+01+
*       -1.850000000E+01               0
GRID*               4862               04.5000000000E+011.4250000000E+01+
*       -1.850000000E+01               0
GRID*               4863               04.5000000000E+011.2214285714E+01+
*       -1.850000000E+01               0
GRID*               4864               04.5000000000E+011.0178571429E+01+
*       -1.850000000E+01               0
GRID*               4865               04.5000000000E+018.1428571429E+00+
*       -1.850000000E+01               0
GRID*               4866               04.5000000000E+016.1071428571E+00+
*       -1.850000000E+01               0
GRID*               4867               04.5000000000E+014.0714285714E+00+
*       -1.850000000E+01               0
GRID*               4868               04.5000000000E+012.0357142857E+00+
*       -1.850000000E+01               0
GRID*               4869               04.7000000000E+012.6464285714E+01+
*       -1.850000000E+01               0
GRID*               4870               04.7000000000E+012.4428571429E+01+
*       -1.850000000E+01               0
GRID*               4871               04.7000000000E+012.2392857143E+01+
*       -1.850000000E+01               0
GRID*               4872               04.7000000000E+012.0357142857E+01+
*       -1.850000000E+01               0
GRID*               4873               04.7000000000E+011.8321428571E+01+
*       -1.850000000E+01               0
GRID*               4874               04.7000000000E+011.6285714286E+01+
*       -1.850000000E+01               0
GRID*               4875               04.7000000000E+011.4250000000E+01+
*       -1.850000000E+01               0
GRID*               4876               04.7000000000E+011.2214285714E+01+
*       -1.850000000E+01               0
GRID*               4877               04.7000000000E+011.0178571429E+01+
*       -1.850000000E+01               0
GRID*               4878               04.7000000000E+018.1428571429E+00+
*       -1.850000000E+01               0
GRID*               4879               04.7000000000E+016.1071428571E+00+
*       -1.850000000E+01               0
GRID*               4880               04.7000000000E+014.0714285714E+00+
*       -1.850000000E+01               0
GRID*               4881               04.7000000000E+012.0357142857E+00+
*       -1.850000000E+01               0
GRID*               4882               04.9000000000E+012.6464285714E+01+
*       -1.850000000E+01               0
GRID*               4883               04.9000000000E+012.4428571429E+01+
*       -1.850000000E+01               0
GRID*               4884               04.9000000000E+012.2392857143E+01+
*       -1.850000000E+01               0
GRID*               4885               04.9000000000E+012.0357142857E+01+
*       -1.850000000E+01               0
GRID*               4886               04.9000000000E+011.8321428571E+01+
*       -1.850000000E+01               0
GRID*               4887               04.9000000000E+011.6285714286E+01+
*       -1.850000000E+01               0
GRID*               4888               04.9000000000E+011.4250000000E+01+
*       -1.850000000E+01               0
GRID*               4889               04.9000000000E+011.2214285714E+01+
*       -1.850000000E+01               0
GRID*               4890               04.9000000000E+011.0178571429E+01+
*       -1.850000000E+01               0
GRID*               4891               04.9000000000E+018.1428571429E+00+
*       -1.850000000E+01               0
GRID*               4892               04.9000000000E+016.1071428571E+00+
*       -1.850000000E+01               0
GRID*               4893               04.9000000000E+014.0714285714E+00+
*       -1.850000000E+01               0
GRID*               4894               04.9000000000E+012.0357142857E+00+
*       -1.850000000E+01               0
GRID*               4895               05.1000000000E+012.6464285714E+01+
*       -1.850000000E+01               0
GRID*               4896               05.1000000000E+012.4428571429E+01+
*       -1.850000000E+01               0
GRID*               4897               05.1000000000E+012.2392857143E+01+
*       -1.850000000E+01               0
GRID*               4898               05.1000000000E+012.0357142857E+01+
*       -1.850000000E+01               0
GRID*               4899               05.1000000000E+011.8321428571E+01+
*       -1.850000000E+01               0
GRID*               4900               05.1000000000E+011.6285714286E+01+
*       -1.850000000E+01               0
GRID*               4901               05.1000000000E+011.4250000000E+01+
*       -1.850000000E+01               0
GRID*               4902               05.1000000000E+011.2214285714E+01+
*       -1.850000000E+01               0
GRID*               4903               05.1000000000E+011.0178571429E+01+
*       -1.850000000E+01               0
GRID*               4904               05.1000000000E+018.1428571429E+00+
*       -1.850000000E+01               0
GRID*               4905               05.1000000000E+016.1071428571E+00+
*       -1.850000000E+01               0
GRID*               4906               05.1000000000E+014.0714285714E+00+
*       -1.850000000E+01               0
GRID*               4907               05.1000000000E+012.0357142857E+00+
*       -1.850000000E+01               0
GRID*               4908               05.3000000000E+012.6464285714E+01+
*       -1.850000000E+01               0
GRID*               4909               05.3000000000E+012.4428571429E+01+
*       -1.850000000E+01               0
GRID*               4910               05.3000000000E+012.2392857143E+01+
*       -1.850000000E+01               0
GRID*               4911               05.3000000000E+012.0357142857E+01+
*       -1.850000000E+01               0
GRID*               4912               05.3000000000E+011.8321428571E+01+
*       -1.850000000E+01               0
GRID*               4913               05.3000000000E+011.6285714286E+01+
*       -1.850000000E+01               0
GRID*               4914               05.3000000000E+011.4250000000E+01+
*       -1.850000000E+01               0
GRID*               4915               05.3000000000E+011.2214285714E+01+
*       -1.850000000E+01               0
GRID*               4916               05.3000000000E+011.0178571429E+01+
*       -1.850000000E+01               0
GRID*               4917               05.3000000000E+018.1428571429E+00+
*       -1.850000000E+01               0
GRID*               4918               05.3000000000E+016.1071428571E+00+
*       -1.850000000E+01               0
GRID*               4919               05.3000000000E+014.0714285714E+00+
*       -1.850000000E+01               0
GRID*               4920               05.3000000000E+012.0357142857E+00+
*       -1.850000000E+01               0
GRID*               4921               05.5000000000E+012.6464285714E+01+
*       -1.850000000E+01               0
GRID*               4922               05.5000000000E+012.4428571429E+01+
*       -1.850000000E+01               0
GRID*               4923               05.5000000000E+012.2392857143E+01+
*       -1.850000000E+01               0
GRID*               4924               05.5000000000E+012.0357142857E+01+
*       -1.850000000E+01               0
GRID*               4925               05.5000000000E+011.8321428571E+01+
*       -1.850000000E+01               0
GRID*               4926               05.5000000000E+011.6285714286E+01+
*       -1.850000000E+01               0
GRID*               4927               05.5000000000E+011.4250000000E+01+
*       -1.850000000E+01               0
GRID*               4928               05.5000000000E+011.2214285714E+01+
*       -1.850000000E+01               0
GRID*               4929               05.5000000000E+011.0178571429E+01+
*       -1.850000000E+01               0
GRID*               4930               05.5000000000E+018.1428571429E+00+
*       -1.850000000E+01               0
GRID*               4931               05.5000000000E+016.1071428571E+00+
*       -1.850000000E+01               0
GRID*               4932               05.5000000000E+014.0714285714E+00+
*       -1.850000000E+01               0
GRID*               4933               05.5000000000E+012.0357142857E+00+
*       -1.850000000E+01               0
GRID*               4934               05.7000000000E+012.6464285714E+01+
*       -1.850000000E+01               0
GRID*               4935               05.7000000000E+012.4428571429E+01+
*       -1.850000000E+01               0
GRID*               4936               05.7000000000E+012.2392857143E+01+
*       -1.850000000E+01               0
GRID*               4937               05.7000000000E+012.0357142857E+01+
*       -1.850000000E+01               0
GRID*               4938               05.7000000000E+011.8321428571E+01+
*       -1.850000000E+01               0
GRID*               4939               05.7000000000E+011.6285714286E+01+
*       -1.850000000E+01               0
GRID*               4940               05.7000000000E+011.4250000000E+01+
*       -1.850000000E+01               0
GRID*               4941               05.7000000000E+011.2214285714E+01+
*       -1.850000000E+01               0
GRID*               4942               05.7000000000E+011.0178571429E+01+
*       -1.850000000E+01               0
GRID*               4943               05.7000000000E+018.1428571429E+00+
*       -1.850000000E+01               0
GRID*               4944               05.7000000000E+016.1071428571E+00+
*       -1.850000000E+01               0
GRID*               4945               05.7000000000E+014.0714285714E+00+
*       -1.850000000E+01               0
GRID*               4946               05.7000000000E+012.0357142857E+00+
*       -1.850000000E+01               0
GRID*               4947               05.9000000000E+012.6464285714E+01+
*       -1.850000000E+01               0
GRID*               4948               05.9000000000E+012.4428571429E+01+
*       -1.850000000E+01               0
GRID*               4949               05.9000000000E+012.2392857143E+01+
*       -1.850000000E+01               0
GRID*               4950               05.9000000000E+012.0357142857E+01+
*       -1.850000000E+01               0
GRID*               4951               05.9000000000E+011.8321428571E+01+
*       -1.850000000E+01               0
GRID*               4952               05.9000000000E+011.6285714286E+01+
*       -1.850000000E+01               0
GRID*               4953               05.9000000000E+011.4250000000E+01+
*       -1.850000000E+01               0
GRID*               4954               05.9000000000E+011.2214285714E+01+
*       -1.850000000E+01               0
GRID*               4955               05.9000000000E+011.0178571429E+01+
*       -1.850000000E+01               0
GRID*               4956               05.9000000000E+018.1428571429E+00+
*       -1.850000000E+01               0
GRID*               4957               05.9000000000E+016.1071428571E+00+
*       -1.850000000E+01               0
GRID*               4958               05.9000000000E+014.0714285714E+00+
*       -1.850000000E+01               0
GRID*               4959               05.9000000000E+012.0357142857E+00+
*       -1.850000000E+01               0
GRID*               4960               06.1000000000E+012.6464285714E+01+
*       -1.850000000E+01               0
GRID*               4961               06.1000000000E+012.4428571429E+01+
*       -1.850000000E+01               0
GRID*               4962               06.1000000000E+012.2392857143E+01+
*       -1.850000000E+01               0
GRID*               4963               06.1000000000E+012.0357142857E+01+
*       -1.850000000E+01               0
GRID*               4964               06.1000000000E+011.8321428571E+01+
*       -1.850000000E+01               0
GRID*               4965               06.1000000000E+011.6285714286E+01+
*       -1.850000000E+01               0
GRID*               4966               06.1000000000E+011.4250000000E+01+
*       -1.850000000E+01               0
GRID*               4967               06.1000000000E+011.2214285714E+01+
*       -1.850000000E+01               0
GRID*               4968               06.1000000000E+011.0178571429E+01+
*       -1.850000000E+01               0
GRID*               4969               06.1000000000E+018.1428571429E+00+
*       -1.850000000E+01               0
GRID*               4970               06.1000000000E+016.1071428571E+00+
*       -1.850000000E+01               0
GRID*               4971               06.1000000000E+014.0714285714E+00+
*       -1.850000000E+01               0
GRID*               4972               06.1000000000E+012.0357142857E+00+
*       -1.850000000E+01               0
GRID*               4973               06.3000000000E+012.6464285714E+01+
*       -1.850000000E+01               0
GRID*               4974               06.3000000000E+012.4428571429E+01+
*       -1.850000000E+01               0
GRID*               4975               06.3000000000E+012.2392857143E+01+
*       -1.850000000E+01               0
GRID*               4976               06.3000000000E+012.0357142857E+01+
*       -1.850000000E+01               0
GRID*               4977               06.3000000000E+011.8321428571E+01+
*       -1.850000000E+01               0
GRID*               4978               06.3000000000E+011.6285714286E+01+
*       -1.850000000E+01               0
GRID*               4979               06.3000000000E+011.4250000000E+01+
*       -1.850000000E+01               0
GRID*               4980               06.3000000000E+011.2214285714E+01+
*       -1.850000000E+01               0
GRID*               4981               06.3000000000E+011.0178571429E+01+
*       -1.850000000E+01               0
GRID*               4982               06.3000000000E+018.1428571429E+00+
*       -1.850000000E+01               0
GRID*               4983               06.3000000000E+016.1071428571E+00+
*       -1.850000000E+01               0
GRID*               4984               06.3000000000E+014.0714285714E+00+
*       -1.850000000E+01               0
GRID*               4985               06.3000000000E+012.0357142857E+00+
*       -1.850000000E+01               0
GRID*               4986               06.5000000000E+012.6464285714E+01+
*       -1.850000000E+01               0
GRID*               4987               06.5000000000E+012.4428571429E+01+
*       -1.850000000E+01               0
GRID*               4988               06.5000000000E+012.2392857143E+01+
*       -1.850000000E+01               0
GRID*               4989               06.5000000000E+012.0357142857E+01+
*       -1.850000000E+01               0
GRID*               4990               06.5000000000E+011.8321428571E+01+
*       -1.850000000E+01               0
GRID*               4991               06.5000000000E+011.6285714286E+01+
*       -1.850000000E+01               0
GRID*               4992               06.5000000000E+011.4250000000E+01+
*       -1.850000000E+01               0
GRID*               4993               06.5000000000E+011.2214285714E+01+
*       -1.850000000E+01               0
GRID*               4994               06.5000000000E+011.0178571429E+01+
*       -1.850000000E+01               0
GRID*               4995               06.5000000000E+018.1428571429E+00+
*       -1.850000000E+01               0
GRID*               4996               06.5000000000E+016.1071428571E+00+
*       -1.850000000E+01               0
GRID*               4997               06.5000000000E+014.0714285714E+00+
*       -1.850000000E+01               0
GRID*               4998               06.5000000000E+012.0357142857E+00+
*       -1.850000000E+01               0
GRID*               4999               06.7000000000E+012.6464285714E+01+
*       -1.850000000E+01               0
GRID*               5000               06.7000000000E+012.4428571429E+01+
*       -1.850000000E+01               0
GRID*               5001               06.7000000000E+012.2392857143E+01+
*       -1.850000000E+01               0
GRID*               5002               06.7000000000E+012.0357142857E+01+
*       -1.850000000E+01               0
GRID*               5003               06.7000000000E+011.8321428571E+01+
*       -1.850000000E+01               0
GRID*               5004               06.7000000000E+011.6285714286E+01+
*       -1.850000000E+01               0
GRID*               5005               06.7000000000E+011.4250000000E+01+
*       -1.850000000E+01               0
GRID*               5006               06.7000000000E+011.2214285714E+01+
*       -1.850000000E+01               0
GRID*               5007               06.7000000000E+011.0178571429E+01+
*       -1.850000000E+01               0
GRID*               5008               06.7000000000E+018.1428571429E+00+
*       -1.850000000E+01               0
GRID*               5009               06.7000000000E+016.1071428571E+00+
*       -1.850000000E+01               0
GRID*               5010               06.7000000000E+014.0714285714E+00+
*       -1.850000000E+01               0
GRID*               5011               06.7000000000E+012.0357142857E+00+
*       -1.850000000E+01               0
GRID*               5012               06.9000000000E+012.6464285714E+01+
*       -1.850000000E+01               0
GRID*               5013               06.9000000000E+012.4428571429E+01+
*       -1.850000000E+01               0
GRID*               5014               06.9000000000E+012.2392857143E+01+
*       -1.850000000E+01               0
GRID*               5015               06.9000000000E+012.0357142857E+01+
*       -1.850000000E+01               0
GRID*               5016               06.9000000000E+011.8321428571E+01+
*       -1.850000000E+01               0
GRID*               5017               06.9000000000E+011.6285714286E+01+
*       -1.850000000E+01               0
GRID*               5018               06.9000000000E+011.4250000000E+01+
*       -1.850000000E+01               0
GRID*               5019               06.9000000000E+011.2214285714E+01+
*       -1.850000000E+01               0
GRID*               5020               06.9000000000E+011.0178571429E+01+
*       -1.850000000E+01               0
GRID*               5021               06.9000000000E+018.1428571429E+00+
*       -1.850000000E+01               0
GRID*               5022               06.9000000000E+016.1071428571E+00+
*       -1.850000000E+01               0
GRID*               5023               06.9000000000E+014.0714285714E+00+
*       -1.850000000E+01               0
GRID*               5024               06.9000000000E+012.0357142857E+00+
*       -1.850000000E+01               0
GRID*               5025               07.1000000000E+012.6464285714E+01+
*       -1.850000000E+01               0
GRID*               5026               07.1000000000E+012.4428571429E+01+
*       -1.850000000E+01               0
GRID*               5027               07.1000000000E+012.2392857143E+01+
*       -1.850000000E+01               0
GRID*               5028               07.1000000000E+012.0357142857E+01+
*       -1.850000000E+01               0
GRID*               5029               07.1000000000E+011.8321428571E+01+
*       -1.850000000E+01               0
GRID*               5030               07.1000000000E+011.6285714286E+01+
*       -1.850000000E+01               0
GRID*               5031               07.1000000000E+011.4250000000E+01+
*       -1.850000000E+01               0
GRID*               5032               07.1000000000E+011.2214285714E+01+
*       -1.850000000E+01               0
GRID*               5033               07.1000000000E+011.0178571429E+01+
*       -1.850000000E+01               0
GRID*               5034               07.1000000000E+018.1428571429E+00+
*       -1.850000000E+01               0
GRID*               5035               07.1000000000E+016.1071428571E+00+
*       -1.850000000E+01               0
GRID*               5036               07.1000000000E+014.0714285714E+00+
*       -1.850000000E+01               0
GRID*               5037               07.1000000000E+012.0357142857E+00+
*       -1.850000000E+01               0
GRID*               5038               07.3000000000E+012.6464285714E+01+
*       -1.850000000E+01               0
GRID*               5039               07.3000000000E+012.4428571429E+01+
*       -1.850000000E+01               0
GRID*               5040               07.3000000000E+012.2392857143E+01+
*       -1.850000000E+01               0
GRID*               5041               07.3000000000E+012.0357142857E+01+
*       -1.850000000E+01               0
GRID*               5042               07.3000000000E+011.8321428571E+01+
*       -1.850000000E+01               0
GRID*               5043               07.3000000000E+011.6285714286E+01+
*       -1.850000000E+01               0
GRID*               5044               07.3000000000E+011.4250000000E+01+
*       -1.850000000E+01               0
GRID*               5045               07.3000000000E+011.2214285714E+01+
*       -1.850000000E+01               0
GRID*               5046               07.3000000000E+011.0178571429E+01+
*       -1.850000000E+01               0
GRID*               5047               07.3000000000E+018.1428571429E+00+
*       -1.850000000E+01               0
GRID*               5048               07.3000000000E+016.1071428571E+00+
*       -1.850000000E+01               0
GRID*               5049               07.3000000000E+014.0714285714E+00+
*       -1.850000000E+01               0
GRID*               5050               07.3000000000E+012.0357142857E+00+
*       -1.850000000E+01               0
GRID*               5051               0-7.200000000E+012.6464285714E+01+
*       -1.850000000E+01               0
GRID*               5052               0-7.100000000E+012.5446428571E+01+
*       -1.850000000E+01               0
GRID*               5053               0-7.200000000E+012.4428571429E+01+
*       -1.850000000E+01               0
GRID*               5054               0-7.300000000E+012.5446428571E+01+
*       -1.850000000E+01               0
GRID*               5055               0-7.100000000E+012.3410714286E+01+
*       -1.850000000E+01               0
GRID*               5056               0-7.200000000E+012.2392857143E+01+
*       -1.850000000E+01               0
GRID*               5057               0-7.300000000E+012.3410714286E+01+
*       -1.850000000E+01               0
GRID*               5058               0-7.100000000E+012.1375000000E+01+
*       -1.850000000E+01               0
GRID*               5059               0-7.200000000E+012.0357142857E+01+
*       -1.850000000E+01               0
GRID*               5060               0-7.300000000E+012.1375000000E+01+
*       -1.850000000E+01               0
GRID*               5061               0-7.100000000E+011.9339285714E+01+
*       -1.850000000E+01               0
GRID*               5062               0-7.200000000E+011.8321428571E+01+
*       -1.850000000E+01               0
GRID*               5063               0-7.300000000E+011.9339285714E+01+
*       -1.850000000E+01               0
GRID*               5064               0-7.100000000E+011.7303571429E+01+
*       -1.850000000E+01               0
GRID*               5065               0-7.200000000E+011.6285714286E+01+
*       -1.850000000E+01               0
GRID*               5066               0-7.300000000E+011.7303571429E+01+
*       -1.850000000E+01               0
GRID*               5067               0-7.100000000E+011.5267857143E+01+
*       -1.850000000E+01               0
GRID*               5068               0-7.200000000E+011.4250000000E+01+
*       -1.850000000E+01               0
GRID*               5069               0-7.300000000E+011.5267857143E+01+
*       -1.850000000E+01               0
GRID*               5070               0-7.100000000E+011.3232142857E+01+
*       -1.850000000E+01               0
GRID*               5071               0-7.200000000E+011.2214285714E+01+
*       -1.850000000E+01               0
GRID*               5072               0-7.300000000E+011.3232142857E+01+
*       -1.850000000E+01               0
GRID*               5073               0-7.100000000E+011.1196428571E+01+
*       -1.850000000E+01               0
GRID*               5074               0-7.200000000E+011.0178571429E+01+
*       -1.850000000E+01               0
GRID*               5075               0-7.300000000E+011.1196428571E+01+
*       -1.850000000E+01               0
GRID*               5076               0-7.100000000E+019.1607142857E+00+
*       -1.850000000E+01               0
GRID*               5077               0-7.200000000E+018.1428571429E+00+
*       -1.850000000E+01               0
GRID*               5078               0-7.300000000E+019.1607142857E+00+
*       -1.850000000E+01               0
GRID*               5079               0-7.100000000E+017.1250000000E+00+
*       -1.850000000E+01               0
GRID*               5080               0-7.200000000E+016.1071428571E+00+
*       -1.850000000E+01               0
GRID*               5081               0-7.300000000E+017.1250000000E+00+
*       -1.850000000E+01               0
GRID*               5082               0-7.100000000E+015.0892857143E+00+
*       -1.850000000E+01               0
GRID*               5083               0-7.200000000E+014.0714285714E+00+
*       -1.850000000E+01               0
GRID*               5084               0-7.300000000E+015.0892857143E+00+
*       -1.850000000E+01               0
GRID*               5085               0-7.100000000E+013.0535714286E+00+
*       -1.850000000E+01               0
GRID*               5086               0-7.200000000E+012.0357142857E+00+
*       -1.850000000E+01               0
GRID*               5087               0-7.300000000E+013.0535714286E+00+
*       -1.850000000E+01               0
GRID*               5088               0-7.000000000E+012.6464285714E+01+
*       -1.850000000E+01               0
GRID*               5089               0-6.900000000E+012.5446428571E+01+
*       -1.850000000E+01               0
GRID*               5090               0-7.000000000E+012.4428571429E+01+
*       -1.850000000E+01               0
GRID*               5091               0-6.900000000E+012.3410714286E+01+
*       -1.850000000E+01               0
GRID*               5092               0-7.000000000E+012.2392857143E+01+
*       -1.850000000E+01               0
GRID*               5093               0-6.900000000E+012.1375000000E+01+
*       -1.850000000E+01               0
GRID*               5094               0-7.000000000E+012.0357142857E+01+
*       -1.850000000E+01               0
GRID*               5095               0-6.900000000E+011.9339285714E+01+
*       -1.850000000E+01               0
GRID*               5096               0-7.000000000E+011.8321428571E+01+
*       -1.850000000E+01               0
GRID*               5097               0-6.900000000E+011.7303571429E+01+
*       -1.850000000E+01               0
GRID*               5098               0-7.000000000E+011.6285714286E+01+
*       -1.850000000E+01               0
GRID*               5099               0-6.900000000E+011.5267857143E+01+
*       -1.850000000E+01               0
GRID*               5100               0-7.000000000E+011.4250000000E+01+
*       -1.850000000E+01               0
GRID*               5101               0-6.900000000E+011.3232142857E+01+
*       -1.850000000E+01               0
GRID*               5102               0-7.000000000E+011.2214285714E+01+
*       -1.850000000E+01               0
GRID*               5103               0-6.900000000E+011.1196428571E+01+
*       -1.850000000E+01               0
GRID*               5104               0-7.000000000E+011.0178571429E+01+
*       -1.850000000E+01               0
GRID*               5105               0-6.900000000E+019.1607142857E+00+
*       -1.850000000E+01               0
GRID*               5106               0-7.000000000E+018.1428571429E+00+
*       -1.850000000E+01               0
GRID*               5107               0-6.900000000E+017.1250000000E+00+
*       -1.850000000E+01               0
GRID*               5108               0-7.000000000E+016.1071428571E+00+
*       -1.850000000E+01               0
GRID*               5109               0-6.900000000E+015.0892857143E+00+
*       -1.850000000E+01               0
GRID*               5110               0-7.000000000E+014.0714285714E+00+
*       -1.850000000E+01               0
GRID*               5111               0-6.900000000E+013.0535714286E+00+
*       -1.850000000E+01               0
GRID*               5112               0-7.000000000E+012.0357142857E+00+
*       -1.850000000E+01               0
GRID*               5113               0-6.800000000E+012.6464285714E+01+
*       -1.850000000E+01               0
GRID*               5114               0-6.700000000E+012.5446428571E+01+
*       -1.850000000E+01               0
GRID*               5115               0-6.800000000E+012.4428571429E+01+
*       -1.850000000E+01               0
GRID*               5116               0-6.700000000E+012.3410714286E+01+
*       -1.850000000E+01               0
GRID*               5117               0-6.800000000E+012.2392857143E+01+
*       -1.850000000E+01               0
GRID*               5118               0-6.700000000E+012.1375000000E+01+
*       -1.850000000E+01               0
GRID*               5119               0-6.800000000E+012.0357142857E+01+
*       -1.850000000E+01               0
GRID*               5120               0-6.700000000E+011.9339285714E+01+
*       -1.850000000E+01               0
GRID*               5121               0-6.800000000E+011.8321428571E+01+
*       -1.850000000E+01               0
GRID*               5122               0-6.700000000E+011.7303571429E+01+
*       -1.850000000E+01               0
GRID*               5123               0-6.800000000E+011.6285714286E+01+
*       -1.850000000E+01               0
GRID*               5124               0-6.700000000E+011.5267857143E+01+
*       -1.850000000E+01               0
GRID*               5125               0-6.800000000E+011.4250000000E+01+
*       -1.850000000E+01               0
GRID*               5126               0-6.700000000E+011.3232142857E+01+
*       -1.850000000E+01               0
GRID*               5127               0-6.800000000E+011.2214285714E+01+
*       -1.850000000E+01               0
GRID*               5128               0-6.700000000E+011.1196428571E+01+
*       -1.850000000E+01               0
GRID*               5129               0-6.800000000E+011.0178571429E+01+
*       -1.850000000E+01               0
GRID*               5130               0-6.700000000E+019.1607142857E+00+
*       -1.850000000E+01               0
GRID*               5131               0-6.800000000E+018.1428571429E+00+
*       -1.850000000E+01               0
GRID*               5132               0-6.700000000E+017.1250000000E+00+
*       -1.850000000E+01               0
GRID*               5133               0-6.800000000E+016.1071428571E+00+
*       -1.850000000E+01               0
GRID*               5134               0-6.700000000E+015.0892857143E+00+
*       -1.850000000E+01               0
GRID*               5135               0-6.800000000E+014.0714285714E+00+
*       -1.850000000E+01               0
GRID*               5136               0-6.700000000E+013.0535714286E+00+
*       -1.850000000E+01               0
GRID*               5137               0-6.800000000E+012.0357142857E+00+
*       -1.850000000E+01               0
GRID*               5138               0-6.600000000E+012.6464285714E+01+
*       -1.850000000E+01               0
GRID*               5139               0-6.500000000E+012.5446428571E+01+
*       -1.850000000E+01               0
GRID*               5140               0-6.600000000E+012.4428571429E+01+
*       -1.850000000E+01               0
GRID*               5141               0-6.500000000E+012.3410714286E+01+
*       -1.850000000E+01               0
GRID*               5142               0-6.600000000E+012.2392857143E+01+
*       -1.850000000E+01               0
GRID*               5143               0-6.500000000E+012.1375000000E+01+
*       -1.850000000E+01               0
GRID*               5144               0-6.600000000E+012.0357142857E+01+
*       -1.850000000E+01               0
GRID*               5145               0-6.500000000E+011.9339285714E+01+
*       -1.850000000E+01               0
GRID*               5146               0-6.600000000E+011.8321428571E+01+
*       -1.850000000E+01               0
GRID*               5147               0-6.500000000E+011.7303571429E+01+
*       -1.850000000E+01               0
GRID*               5148               0-6.600000000E+011.6285714286E+01+
*       -1.850000000E+01               0
GRID*               5149               0-6.500000000E+011.5267857143E+01+
*       -1.850000000E+01               0
GRID*               5150               0-6.600000000E+011.4250000000E+01+
*       -1.850000000E+01               0
GRID*               5151               0-6.500000000E+011.3232142857E+01+
*       -1.850000000E+01               0
GRID*               5152               0-6.600000000E+011.2214285714E+01+
*       -1.850000000E+01               0
GRID*               5153               0-6.500000000E+011.1196428571E+01+
*       -1.850000000E+01               0
GRID*               5154               0-6.600000000E+011.0178571429E+01+
*       -1.850000000E+01               0
GRID*               5155               0-6.500000000E+019.1607142857E+00+
*       -1.850000000E+01               0
GRID*               5156               0-6.600000000E+018.1428571429E+00+
*       -1.850000000E+01               0
GRID*               5157               0-6.500000000E+017.1250000000E+00+
*       -1.850000000E+01               0
GRID*               5158               0-6.600000000E+016.1071428571E+00+
*       -1.850000000E+01               0
GRID*               5159               0-6.500000000E+015.0892857143E+00+
*       -1.850000000E+01               0
GRID*               5160               0-6.600000000E+014.0714285714E+00+
*       -1.850000000E+01               0
GRID*               5161               0-6.500000000E+013.0535714286E+00+
*       -1.850000000E+01               0
GRID*               5162               0-6.600000000E+012.0357142857E+00+
*       -1.850000000E+01               0
GRID*               5163               0-6.400000000E+012.6464285714E+01+
*       -1.850000000E+01               0
GRID*               5164               0-6.300000000E+012.5446428571E+01+
*       -1.850000000E+01               0
GRID*               5165               0-6.400000000E+012.4428571429E+01+
*       -1.850000000E+01               0
GRID*               5166               0-6.300000000E+012.3410714286E+01+
*       -1.850000000E+01               0
GRID*               5167               0-6.400000000E+012.2392857143E+01+
*       -1.850000000E+01               0
GRID*               5168               0-6.300000000E+012.1375000000E+01+
*       -1.850000000E+01               0
GRID*               5169               0-6.400000000E+012.0357142857E+01+
*       -1.850000000E+01               0
GRID*               5170               0-6.300000000E+011.9339285714E+01+
*       -1.850000000E+01               0
GRID*               5171               0-6.400000000E+011.8321428571E+01+
*       -1.850000000E+01               0
GRID*               5172               0-6.300000000E+011.7303571429E+01+
*       -1.850000000E+01               0
GRID*               5173               0-6.400000000E+011.6285714286E+01+
*       -1.850000000E+01               0
GRID*               5174               0-6.300000000E+011.5267857143E+01+
*       -1.850000000E+01               0
GRID*               5175               0-6.400000000E+011.4250000000E+01+
*       -1.850000000E+01               0
GRID*               5176               0-6.300000000E+011.3232142857E+01+
*       -1.850000000E+01               0
GRID*               5177               0-6.400000000E+011.2214285714E+01+
*       -1.850000000E+01               0
GRID*               5178               0-6.300000000E+011.1196428571E+01+
*       -1.850000000E+01               0
GRID*               5179               0-6.400000000E+011.0178571429E+01+
*       -1.850000000E+01               0
GRID*               5180               0-6.300000000E+019.1607142857E+00+
*       -1.850000000E+01               0
GRID*               5181               0-6.400000000E+018.1428571429E+00+
*       -1.850000000E+01               0
GRID*               5182               0-6.300000000E+017.1250000000E+00+
*       -1.850000000E+01               0
GRID*               5183               0-6.400000000E+016.1071428571E+00+
*       -1.850000000E+01               0
GRID*               5184               0-6.300000000E+015.0892857143E+00+
*       -1.850000000E+01               0
GRID*               5185               0-6.400000000E+014.0714285714E+00+
*       -1.850000000E+01               0
GRID*               5186               0-6.300000000E+013.0535714286E+00+
*       -1.850000000E+01               0
GRID*               5187               0-6.400000000E+012.0357142857E+00+
*       -1.850000000E+01               0
GRID*               5188               0-6.200000000E+012.6464285714E+01+
*       -1.850000000E+01               0
GRID*               5189               0-6.100000000E+012.5446428571E+01+
*       -1.850000000E+01               0
GRID*               5190               0-6.200000000E+012.4428571429E+01+
*       -1.850000000E+01               0
GRID*               5191               0-6.100000000E+012.3410714286E+01+
*       -1.850000000E+01               0
GRID*               5192               0-6.200000000E+012.2392857143E+01+
*       -1.850000000E+01               0
GRID*               5193               0-6.100000000E+012.1375000000E+01+
*       -1.850000000E+01               0
GRID*               5194               0-6.200000000E+012.0357142857E+01+
*       -1.850000000E+01               0
GRID*               5195               0-6.100000000E+011.9339285714E+01+
*       -1.850000000E+01               0
GRID*               5196               0-6.200000000E+011.8321428571E+01+
*       -1.850000000E+01               0
GRID*               5197               0-6.100000000E+011.7303571429E+01+
*       -1.850000000E+01               0
GRID*               5198               0-6.200000000E+011.6285714286E+01+
*       -1.850000000E+01               0
GRID*               5199               0-6.100000000E+011.5267857143E+01+
*       -1.850000000E+01               0
GRID*               5200               0-6.200000000E+011.4250000000E+01+
*       -1.850000000E+01               0
GRID*               5201               0-6.100000000E+011.3232142857E+01+
*       -1.850000000E+01               0
GRID*               5202               0-6.200000000E+011.2214285714E+01+
*       -1.850000000E+01               0
GRID*               5203               0-6.100000000E+011.1196428571E+01+
*       -1.850000000E+01               0
GRID*               5204               0-6.200000000E+011.0178571429E+01+
*       -1.850000000E+01               0
GRID*               5205               0-6.100000000E+019.1607142857E+00+
*       -1.850000000E+01               0
GRID*               5206               0-6.200000000E+018.1428571429E+00+
*       -1.850000000E+01               0
GRID*               5207               0-6.100000000E+017.1250000000E+00+
*       -1.850000000E+01               0
GRID*               5208               0-6.200000000E+016.1071428571E+00+
*       -1.850000000E+01               0
GRID*               5209               0-6.100000000E+015.0892857143E+00+
*       -1.850000000E+01               0
GRID*               5210               0-6.200000000E+014.0714285714E+00+
*       -1.850000000E+01               0
GRID*               5211               0-6.100000000E+013.0535714286E+00+
*       -1.850000000E+01               0
GRID*               5212               0-6.200000000E+012.0357142857E+00+
*       -1.850000000E+01               0
GRID*               5213               0-6.000000000E+012.6464285714E+01+
*       -1.850000000E+01               0
GRID*               5214               0-5.900000000E+012.5446428571E+01+
*       -1.850000000E+01               0
GRID*               5215               0-6.000000000E+012.4428571429E+01+
*       -1.850000000E+01               0
GRID*               5216               0-5.900000000E+012.3410714286E+01+
*       -1.850000000E+01               0
GRID*               5217               0-6.000000000E+012.2392857143E+01+
*       -1.850000000E+01               0
GRID*               5218               0-5.900000000E+012.1375000000E+01+
*       -1.850000000E+01               0
GRID*               5219               0-6.000000000E+012.0357142857E+01+
*       -1.850000000E+01               0
GRID*               5220               0-5.900000000E+011.9339285714E+01+
*       -1.850000000E+01               0
GRID*               5221               0-6.000000000E+011.8321428571E+01+
*       -1.850000000E+01               0
GRID*               5222               0-5.900000000E+011.7303571429E+01+
*       -1.850000000E+01               0
GRID*               5223               0-6.000000000E+011.6285714286E+01+
*       -1.850000000E+01               0
GRID*               5224               0-5.900000000E+011.5267857143E+01+
*       -1.850000000E+01               0
GRID*               5225               0-6.000000000E+011.4250000000E+01+
*       -1.850000000E+01               0
GRID*               5226               0-5.900000000E+011.3232142857E+01+
*       -1.850000000E+01               0
GRID*               5227               0-6.000000000E+011.2214285714E+01+
*       -1.850000000E+01               0
GRID*               5228               0-5.900000000E+011.1196428571E+01+
*       -1.850000000E+01               0
GRID*               5229               0-6.000000000E+011.0178571429E+01+
*       -1.850000000E+01               0
GRID*               5230               0-5.900000000E+019.1607142857E+00+
*       -1.850000000E+01               0
GRID*               5231               0-6.000000000E+018.1428571429E+00+
*       -1.850000000E+01               0
GRID*               5232               0-5.900000000E+017.1250000000E+00+
*       -1.850000000E+01               0
GRID*               5233               0-6.000000000E+016.1071428571E+00+
*       -1.850000000E+01               0
GRID*               5234               0-5.900000000E+015.0892857143E+00+
*       -1.850000000E+01               0
GRID*               5235               0-6.000000000E+014.0714285714E+00+
*       -1.850000000E+01               0
GRID*               5236               0-5.900000000E+013.0535714286E+00+
*       -1.850000000E+01               0
GRID*               5237               0-6.000000000E+012.0357142857E+00+
*       -1.850000000E+01               0
GRID*               5238               0-5.800000000E+012.6464285714E+01+
*       -1.850000000E+01               0
GRID*               5239               0-5.700000000E+012.5446428571E+01+
*       -1.850000000E+01               0
GRID*               5240               0-5.800000000E+012.4428571429E+01+
*       -1.850000000E+01               0
GRID*               5241               0-5.700000000E+012.3410714286E+01+
*       -1.850000000E+01               0
GRID*               5242               0-5.800000000E+012.2392857143E+01+
*       -1.850000000E+01               0
GRID*               5243               0-5.700000000E+012.1375000000E+01+
*       -1.850000000E+01               0
GRID*               5244               0-5.800000000E+012.0357142857E+01+
*       -1.850000000E+01               0
GRID*               5245               0-5.700000000E+011.9339285714E+01+
*       -1.850000000E+01               0
GRID*               5246               0-5.800000000E+011.8321428571E+01+
*       -1.850000000E+01               0
GRID*               5247               0-5.700000000E+011.7303571429E+01+
*       -1.850000000E+01               0
GRID*               5248               0-5.800000000E+011.6285714286E+01+
*       -1.850000000E+01               0
GRID*               5249               0-5.700000000E+011.5267857143E+01+
*       -1.850000000E+01               0
GRID*               5250               0-5.800000000E+011.4250000000E+01+
*       -1.850000000E+01               0
GRID*               5251               0-5.700000000E+011.3232142857E+01+
*       -1.850000000E+01               0
GRID*               5252               0-5.800000000E+011.2214285714E+01+
*       -1.850000000E+01               0
GRID*               5253               0-5.700000000E+011.1196428571E+01+
*       -1.850000000E+01               0
GRID*               5254               0-5.800000000E+011.0178571429E+01+
*       -1.850000000E+01               0
GRID*               5255               0-5.700000000E+019.1607142857E+00+
*       -1.850000000E+01               0
GRID*               5256               0-5.800000000E+018.1428571429E+00+
*       -1.850000000E+01               0
GRID*               5257               0-5.700000000E+017.1250000000E+00+
*       -1.850000000E+01               0
GRID*               5258               0-5.800000000E+016.1071428571E+00+
*       -1.850000000E+01               0
GRID*               5259               0-5.700000000E+015.0892857143E+00+
*       -1.850000000E+01               0
GRID*               5260               0-5.800000000E+014.0714285714E+00+
*       -1.850000000E+01               0
GRID*               5261               0-5.700000000E+013.0535714286E+00+
*       -1.850000000E+01               0
GRID*               5262               0-5.800000000E+012.0357142857E+00+
*       -1.850000000E+01               0
GRID*               5263               0-5.600000000E+012.6464285714E+01+
*       -1.850000000E+01               0
GRID*               5264               0-5.500000000E+012.5446428571E+01+
*       -1.850000000E+01               0
GRID*               5265               0-5.600000000E+012.4428571429E+01+
*       -1.850000000E+01               0
GRID*               5266               0-5.500000000E+012.3410714286E+01+
*       -1.850000000E+01               0
GRID*               5267               0-5.600000000E+012.2392857143E+01+
*       -1.850000000E+01               0
GRID*               5268               0-5.500000000E+012.1375000000E+01+
*       -1.850000000E+01               0
GRID*               5269               0-5.600000000E+012.0357142857E+01+
*       -1.850000000E+01               0
GRID*               5270               0-5.500000000E+011.9339285714E+01+
*       -1.850000000E+01               0
GRID*               5271               0-5.600000000E+011.8321428571E+01+
*       -1.850000000E+01               0
GRID*               5272               0-5.500000000E+011.7303571429E+01+
*       -1.850000000E+01               0
GRID*               5273               0-5.600000000E+011.6285714286E+01+
*       -1.850000000E+01               0
GRID*               5274               0-5.500000000E+011.5267857143E+01+
*       -1.850000000E+01               0
GRID*               5275               0-5.600000000E+011.4250000000E+01+
*       -1.850000000E+01               0
GRID*               5276               0-5.500000000E+011.3232142857E+01+
*       -1.850000000E+01               0
GRID*               5277               0-5.600000000E+011.2214285714E+01+
*       -1.850000000E+01               0
GRID*               5278               0-5.500000000E+011.1196428571E+01+
*       -1.850000000E+01               0
GRID*               5279               0-5.600000000E+011.0178571429E+01+
*       -1.850000000E+01               0
GRID*               5280               0-5.500000000E+019.1607142857E+00+
*       -1.850000000E+01               0
GRID*               5281               0-5.600000000E+018.1428571429E+00+
*       -1.850000000E+01               0
GRID*               5282               0-5.500000000E+017.1250000000E+00+
*       -1.850000000E+01               0
GRID*               5283               0-5.600000000E+016.1071428571E+00+
*       -1.850000000E+01               0
GRID*               5284               0-5.500000000E+015.0892857143E+00+
*       -1.850000000E+01               0
GRID*               5285               0-5.600000000E+014.0714285714E+00+
*       -1.850000000E+01               0
GRID*               5286               0-5.500000000E+013.0535714286E+00+
*       -1.850000000E+01               0
GRID*               5287               0-5.600000000E+012.0357142857E+00+
*       -1.850000000E+01               0
GRID*               5288               0-5.400000000E+012.6464285714E+01+
*       -1.850000000E+01               0
GRID*               5289               0-5.300000000E+012.5446428571E+01+
*       -1.850000000E+01               0
GRID*               5290               0-5.400000000E+012.4428571429E+01+
*       -1.850000000E+01               0
GRID*               5291               0-5.300000000E+012.3410714286E+01+
*       -1.850000000E+01               0
GRID*               5292               0-5.400000000E+012.2392857143E+01+
*       -1.850000000E+01               0
GRID*               5293               0-5.300000000E+012.1375000000E+01+
*       -1.850000000E+01               0
GRID*               5294               0-5.400000000E+012.0357142857E+01+
*       -1.850000000E+01               0
GRID*               5295               0-5.300000000E+011.9339285714E+01+
*       -1.850000000E+01               0
GRID*               5296               0-5.400000000E+011.8321428571E+01+
*       -1.850000000E+01               0
GRID*               5297               0-5.300000000E+011.7303571429E+01+
*       -1.850000000E+01               0
GRID*               5298               0-5.400000000E+011.6285714286E+01+
*       -1.850000000E+01               0
GRID*               5299               0-5.300000000E+011.5267857143E+01+
*       -1.850000000E+01               0
GRID*               5300               0-5.400000000E+011.4250000000E+01+
*       -1.850000000E+01               0
GRID*               5301               0-5.300000000E+011.3232142857E+01+
*       -1.850000000E+01               0
GRID*               5302               0-5.400000000E+011.2214285714E+01+
*       -1.850000000E+01               0
GRID*               5303               0-5.300000000E+011.1196428571E+01+
*       -1.850000000E+01               0
GRID*               5304               0-5.400000000E+011.0178571429E+01+
*       -1.850000000E+01               0
GRID*               5305               0-5.300000000E+019.1607142857E+00+
*       -1.850000000E+01               0
GRID*               5306               0-5.400000000E+018.1428571429E+00+
*       -1.850000000E+01               0
GRID*               5307               0-5.300000000E+017.1250000000E+00+
*       -1.850000000E+01               0
GRID*               5308               0-5.400000000E+016.1071428571E+00+
*       -1.850000000E+01               0
GRID*               5309               0-5.300000000E+015.0892857143E+00+
*       -1.850000000E+01               0
GRID*               5310               0-5.400000000E+014.0714285714E+00+
*       -1.850000000E+01               0
GRID*               5311               0-5.300000000E+013.0535714286E+00+
*       -1.850000000E+01               0
GRID*               5312               0-5.400000000E+012.0357142857E+00+
*       -1.850000000E+01               0
GRID*               5313               0-5.200000000E+012.6464285714E+01+
*       -1.850000000E+01               0
GRID*               5314               0-5.100000000E+012.5446428571E+01+
*       -1.850000000E+01               0
GRID*               5315               0-5.200000000E+012.4428571429E+01+
*       -1.850000000E+01               0
GRID*               5316               0-5.100000000E+012.3410714286E+01+
*       -1.850000000E+01               0
GRID*               5317               0-5.200000000E+012.2392857143E+01+
*       -1.850000000E+01               0
GRID*               5318               0-5.100000000E+012.1375000000E+01+
*       -1.850000000E+01               0
GRID*               5319               0-5.200000000E+012.0357142857E+01+
*       -1.850000000E+01               0
GRID*               5320               0-5.100000000E+011.9339285714E+01+
*       -1.850000000E+01               0
GRID*               5321               0-5.200000000E+011.8321428571E+01+
*       -1.850000000E+01               0
GRID*               5322               0-5.100000000E+011.7303571429E+01+
*       -1.850000000E+01               0
GRID*               5323               0-5.200000000E+011.6285714286E+01+
*       -1.850000000E+01               0
GRID*               5324               0-5.100000000E+011.5267857143E+01+
*       -1.850000000E+01               0
GRID*               5325               0-5.200000000E+011.4250000000E+01+
*       -1.850000000E+01               0
GRID*               5326               0-5.100000000E+011.3232142857E+01+
*       -1.850000000E+01               0
GRID*               5327               0-5.200000000E+011.2214285714E+01+
*       -1.850000000E+01               0
GRID*               5328               0-5.100000000E+011.1196428571E+01+
*       -1.850000000E+01               0
GRID*               5329               0-5.200000000E+011.0178571429E+01+
*       -1.850000000E+01               0
GRID*               5330               0-5.100000000E+019.1607142857E+00+
*       -1.850000000E+01               0
GRID*               5331               0-5.200000000E+018.1428571429E+00+
*       -1.850000000E+01               0
GRID*               5332               0-5.100000000E+017.1250000000E+00+
*       -1.850000000E+01               0
GRID*               5333               0-5.200000000E+016.1071428571E+00+
*       -1.850000000E+01               0
GRID*               5334               0-5.100000000E+015.0892857143E+00+
*       -1.850000000E+01               0
GRID*               5335               0-5.200000000E+014.0714285714E+00+
*       -1.850000000E+01               0
GRID*               5336               0-5.100000000E+013.0535714286E+00+
*       -1.850000000E+01               0
GRID*               5337               0-5.200000000E+012.0357142857E+00+
*       -1.850000000E+01               0
GRID*               5338               0-5.000000000E+012.6464285714E+01+
*       -1.850000000E+01               0
GRID*               5339               0-4.900000000E+012.5446428571E+01+
*       -1.850000000E+01               0
GRID*               5340               0-5.000000000E+012.4428571429E+01+
*       -1.850000000E+01               0
GRID*               5341               0-4.900000000E+012.3410714286E+01+
*       -1.850000000E+01               0
GRID*               5342               0-5.000000000E+012.2392857143E+01+
*       -1.850000000E+01               0
GRID*               5343               0-4.900000000E+012.1375000000E+01+
*       -1.850000000E+01               0
GRID*               5344               0-5.000000000E+012.0357142857E+01+
*       -1.850000000E+01               0
GRID*               5345               0-4.900000000E+011.9339285714E+01+
*       -1.850000000E+01               0
GRID*               5346               0-5.000000000E+011.8321428571E+01+
*       -1.850000000E+01               0
GRID*               5347               0-4.900000000E+011.7303571429E+01+
*       -1.850000000E+01               0
GRID*               5348               0-5.000000000E+011.6285714286E+01+
*       -1.850000000E+01               0
GRID*               5349               0-4.900000000E+011.5267857143E+01+
*       -1.850000000E+01               0
GRID*               5350               0-5.000000000E+011.4250000000E+01+
*       -1.850000000E+01               0
GRID*               5351               0-4.900000000E+011.3232142857E+01+
*       -1.850000000E+01               0
GRID*               5352               0-5.000000000E+011.2214285714E+01+
*       -1.850000000E+01               0
GRID*               5353               0-4.900000000E+011.1196428571E+01+
*       -1.850000000E+01               0
GRID*               5354               0-5.000000000E+011.0178571429E+01+
*       -1.850000000E+01               0
GRID*               5355               0-4.900000000E+019.1607142857E+00+
*       -1.850000000E+01               0
GRID*               5356               0-5.000000000E+018.1428571429E+00+
*       -1.850000000E+01               0
GRID*               5357               0-4.900000000E+017.1250000000E+00+
*       -1.850000000E+01               0
GRID*               5358               0-5.000000000E+016.1071428571E+00+
*       -1.850000000E+01               0
GRID*               5359               0-4.900000000E+015.0892857143E+00+
*       -1.850000000E+01               0
GRID*               5360               0-5.000000000E+014.0714285714E+00+
*       -1.850000000E+01               0
GRID*               5361               0-4.900000000E+013.0535714286E+00+
*       -1.850000000E+01               0
GRID*               5362               0-5.000000000E+012.0357142857E+00+
*       -1.850000000E+01               0
GRID*               5363               0-4.800000000E+012.6464285714E+01+
*       -1.850000000E+01               0
GRID*               5364               0-4.700000000E+012.5446428571E+01+
*       -1.850000000E+01               0
GRID*               5365               0-4.800000000E+012.4428571429E+01+
*       -1.850000000E+01               0
GRID*               5366               0-4.700000000E+012.3410714286E+01+
*       -1.850000000E+01               0
GRID*               5367               0-4.800000000E+012.2392857143E+01+
*       -1.850000000E+01               0
GRID*               5368               0-4.700000000E+012.1375000000E+01+
*       -1.850000000E+01               0
GRID*               5369               0-4.800000000E+012.0357142857E+01+
*       -1.850000000E+01               0
GRID*               5370               0-4.700000000E+011.9339285714E+01+
*       -1.850000000E+01               0
GRID*               5371               0-4.800000000E+011.8321428571E+01+
*       -1.850000000E+01               0
GRID*               5372               0-4.700000000E+011.7303571429E+01+
*       -1.850000000E+01               0
GRID*               5373               0-4.800000000E+011.6285714286E+01+
*       -1.850000000E+01               0
GRID*               5374               0-4.700000000E+011.5267857143E+01+
*       -1.850000000E+01               0
GRID*               5375               0-4.800000000E+011.4250000000E+01+
*       -1.850000000E+01               0
GRID*               5376               0-4.700000000E+011.3232142857E+01+
*       -1.850000000E+01               0
GRID*               5377               0-4.800000000E+011.2214285714E+01+
*       -1.850000000E+01               0
GRID*               5378               0-4.700000000E+011.1196428571E+01+
*       -1.850000000E+01               0
GRID*               5379               0-4.800000000E+011.0178571429E+01+
*       -1.850000000E+01               0
GRID*               5380               0-4.700000000E+019.1607142857E+00+
*       -1.850000000E+01               0
GRID*               5381               0-4.800000000E+018.1428571429E+00+
*       -1.850000000E+01               0
GRID*               5382               0-4.700000000E+017.1250000000E+00+
*       -1.850000000E+01               0
GRID*               5383               0-4.800000000E+016.1071428571E+00+
*       -1.850000000E+01               0
GRID*               5384               0-4.700000000E+015.0892857143E+00+
*       -1.850000000E+01               0
GRID*               5385               0-4.800000000E+014.0714285714E+00+
*       -1.850000000E+01               0
GRID*               5386               0-4.700000000E+013.0535714286E+00+
*       -1.850000000E+01               0
GRID*               5387               0-4.800000000E+012.0357142857E+00+
*       -1.850000000E+01               0
GRID*               5388               0-4.600000000E+012.6464285714E+01+
*       -1.850000000E+01               0
GRID*               5389               0-4.500000000E+012.5446428571E+01+
*       -1.850000000E+01               0
GRID*               5390               0-4.600000000E+012.4428571429E+01+
*       -1.850000000E+01               0
GRID*               5391               0-4.500000000E+012.3410714286E+01+
*       -1.850000000E+01               0
GRID*               5392               0-4.600000000E+012.2392857143E+01+
*       -1.850000000E+01               0
GRID*               5393               0-4.500000000E+012.1375000000E+01+
*       -1.850000000E+01               0
GRID*               5394               0-4.600000000E+012.0357142857E+01+
*       -1.850000000E+01               0
GRID*               5395               0-4.500000000E+011.9339285714E+01+
*       -1.850000000E+01               0
GRID*               5396               0-4.600000000E+011.8321428571E+01+
*       -1.850000000E+01               0
GRID*               5397               0-4.500000000E+011.7303571429E+01+
*       -1.850000000E+01               0
GRID*               5398               0-4.600000000E+011.6285714286E+01+
*       -1.850000000E+01               0
GRID*               5399               0-4.500000000E+011.5267857143E+01+
*       -1.850000000E+01               0
GRID*               5400               0-4.600000000E+011.4250000000E+01+
*       -1.850000000E+01               0
GRID*               5401               0-4.500000000E+011.3232142857E+01+
*       -1.850000000E+01               0
GRID*               5402               0-4.600000000E+011.2214285714E+01+
*       -1.850000000E+01               0
GRID*               5403               0-4.500000000E+011.1196428571E+01+
*       -1.850000000E+01               0
GRID*               5404               0-4.600000000E+011.0178571429E+01+
*       -1.850000000E+01               0
GRID*               5405               0-4.500000000E+019.1607142857E+00+
*       -1.850000000E+01               0
GRID*               5406               0-4.600000000E+018.1428571429E+00+
*       -1.850000000E+01               0
GRID*               5407               0-4.500000000E+017.1250000000E+00+
*       -1.850000000E+01               0
GRID*               5408               0-4.600000000E+016.1071428571E+00+
*       -1.850000000E+01               0
GRID*               5409               0-4.500000000E+015.0892857143E+00+
*       -1.850000000E+01               0
GRID*               5410               0-4.600000000E+014.0714285714E+00+
*       -1.850000000E+01               0
GRID*               5411               0-4.500000000E+013.0535714286E+00+
*       -1.850000000E+01               0
GRID*               5412               0-4.600000000E+012.0357142857E+00+
*       -1.850000000E+01               0
GRID*               5413               0-4.400000000E+012.6464285714E+01+
*       -1.850000000E+01               0
GRID*               5414               0-4.300000000E+012.5446428571E+01+
*       -1.850000000E+01               0
GRID*               5415               0-4.400000000E+012.4428571429E+01+
*       -1.850000000E+01               0
GRID*               5416               0-4.300000000E+012.3410714286E+01+
*       -1.850000000E+01               0
GRID*               5417               0-4.400000000E+012.2392857143E+01+
*       -1.850000000E+01               0
GRID*               5418               0-4.300000000E+012.1375000000E+01+
*       -1.850000000E+01               0
GRID*               5419               0-4.400000000E+012.0357142857E+01+
*       -1.850000000E+01               0
GRID*               5420               0-4.300000000E+011.9339285714E+01+
*       -1.850000000E+01               0
GRID*               5421               0-4.400000000E+011.8321428571E+01+
*       -1.850000000E+01               0
GRID*               5422               0-4.300000000E+011.7303571429E+01+
*       -1.850000000E+01               0
GRID*               5423               0-4.400000000E+011.6285714286E+01+
*       -1.850000000E+01               0
GRID*               5424               0-4.300000000E+011.5267857143E+01+
*       -1.850000000E+01               0
GRID*               5425               0-4.400000000E+011.4250000000E+01+
*       -1.850000000E+01               0
GRID*               5426               0-4.300000000E+011.3232142857E+01+
*       -1.850000000E+01               0
GRID*               5427               0-4.400000000E+011.2214285714E+01+
*       -1.850000000E+01               0
GRID*               5428               0-4.300000000E+011.1196428571E+01+
*       -1.850000000E+01               0
GRID*               5429               0-4.400000000E+011.0178571429E+01+
*       -1.850000000E+01               0
GRID*               5430               0-4.300000000E+019.1607142857E+00+
*       -1.850000000E+01               0
GRID*               5431               0-4.400000000E+018.1428571429E+00+
*       -1.850000000E+01               0
GRID*               5432               0-4.300000000E+017.1250000000E+00+
*       -1.850000000E+01               0
GRID*               5433               0-4.400000000E+016.1071428571E+00+
*       -1.850000000E+01               0
GRID*               5434               0-4.300000000E+015.0892857143E+00+
*       -1.850000000E+01               0
GRID*               5435               0-4.400000000E+014.0714285714E+00+
*       -1.850000000E+01               0
GRID*               5436               0-4.300000000E+013.0535714286E+00+
*       -1.850000000E+01               0
GRID*               5437               0-4.400000000E+012.0357142857E+00+
*       -1.850000000E+01               0
GRID*               5438               0-4.200000000E+012.6464285714E+01+
*       -1.850000000E+01               0
GRID*               5439               0-4.100000000E+012.5446428571E+01+
*       -1.850000000E+01               0
GRID*               5440               0-4.200000000E+012.4428571429E+01+
*       -1.850000000E+01               0
GRID*               5441               0-4.100000000E+012.3410714286E+01+
*       -1.850000000E+01               0
GRID*               5442               0-4.200000000E+012.2392857143E+01+
*       -1.850000000E+01               0
GRID*               5443               0-4.100000000E+012.1375000000E+01+
*       -1.850000000E+01               0
GRID*               5444               0-4.200000000E+012.0357142857E+01+
*       -1.850000000E+01               0
GRID*               5445               0-4.100000000E+011.9339285714E+01+
*       -1.850000000E+01               0
GRID*               5446               0-4.200000000E+011.8321428571E+01+
*       -1.850000000E+01               0
GRID*               5447               0-4.100000000E+011.7303571429E+01+
*       -1.850000000E+01               0
GRID*               5448               0-4.200000000E+011.6285714286E+01+
*       -1.850000000E+01               0
GRID*               5449               0-4.100000000E+011.5267857143E+01+
*       -1.850000000E+01               0
GRID*               5450               0-4.200000000E+011.4250000000E+01+
*       -1.850000000E+01               0
GRID*               5451               0-4.100000000E+011.3232142857E+01+
*       -1.850000000E+01               0
GRID*               5452               0-4.200000000E+011.2214285714E+01+
*       -1.850000000E+01               0
GRID*               5453               0-4.100000000E+011.1196428571E+01+
*       -1.850000000E+01               0
GRID*               5454               0-4.200000000E+011.0178571429E+01+
*       -1.850000000E+01               0
GRID*               5455               0-4.100000000E+019.1607142857E+00+
*       -1.850000000E+01               0
GRID*               5456               0-4.200000000E+018.1428571429E+00+
*       -1.850000000E+01               0
GRID*               5457               0-4.100000000E+017.1250000000E+00+
*       -1.850000000E+01               0
GRID*               5458               0-4.200000000E+016.1071428571E+00+
*       -1.850000000E+01               0
GRID*               5459               0-4.100000000E+015.0892857143E+00+
*       -1.850000000E+01               0
GRID*               5460               0-4.200000000E+014.0714285714E+00+
*       -1.850000000E+01               0
GRID*               5461               0-4.100000000E+013.0535714286E+00+
*       -1.850000000E+01               0
GRID*               5462               0-4.200000000E+012.0357142857E+00+
*       -1.850000000E+01               0
GRID*               5463               0-4.000000000E+012.6464285714E+01+
*       -1.850000000E+01               0
GRID*               5464               0-3.900000000E+012.5446428571E+01+
*       -1.850000000E+01               0
GRID*               5465               0-4.000000000E+012.4428571429E+01+
*       -1.850000000E+01               0
GRID*               5466               0-3.900000000E+012.3410714286E+01+
*       -1.850000000E+01               0
GRID*               5467               0-4.000000000E+012.2392857143E+01+
*       -1.850000000E+01               0
GRID*               5468               0-3.900000000E+012.1375000000E+01+
*       -1.850000000E+01               0
GRID*               5469               0-4.000000000E+012.0357142857E+01+
*       -1.850000000E+01               0
GRID*               5470               0-3.900000000E+011.9339285714E+01+
*       -1.850000000E+01               0
GRID*               5471               0-4.000000000E+011.8321428571E+01+
*       -1.850000000E+01               0
GRID*               5472               0-3.900000000E+011.7303571429E+01+
*       -1.850000000E+01               0
GRID*               5473               0-4.000000000E+011.6285714286E+01+
*       -1.850000000E+01               0
GRID*               5474               0-3.900000000E+011.5267857143E+01+
*       -1.850000000E+01               0
GRID*               5475               0-4.000000000E+011.4250000000E+01+
*       -1.850000000E+01               0
GRID*               5476               0-3.900000000E+011.3232142857E+01+
*       -1.850000000E+01               0
GRID*               5477               0-4.000000000E+011.2214285714E+01+
*       -1.850000000E+01               0
GRID*               5478               0-3.900000000E+011.1196428571E+01+
*       -1.850000000E+01               0
GRID*               5479               0-4.000000000E+011.0178571429E+01+
*       -1.850000000E+01               0
GRID*               5480               0-3.900000000E+019.1607142857E+00+
*       -1.850000000E+01               0
GRID*               5481               0-4.000000000E+018.1428571429E+00+
*       -1.850000000E+01               0
GRID*               5482               0-3.900000000E+017.1250000000E+00+
*       -1.850000000E+01               0
GRID*               5483               0-4.000000000E+016.1071428571E+00+
*       -1.850000000E+01               0
GRID*               5484               0-3.900000000E+015.0892857143E+00+
*       -1.850000000E+01               0
GRID*               5485               0-4.000000000E+014.0714285714E+00+
*       -1.850000000E+01               0
GRID*               5486               0-3.900000000E+013.0535714286E+00+
*       -1.850000000E+01               0
GRID*               5487               0-4.000000000E+012.0357142857E+00+
*       -1.850000000E+01               0
GRID*               5488               0-3.800000000E+012.6464285714E+01+
*       -1.850000000E+01               0
GRID*               5489               0-3.700000000E+012.5446428571E+01+
*       -1.850000000E+01               0
GRID*               5490               0-3.800000000E+012.4428571429E+01+
*       -1.850000000E+01               0
GRID*               5491               0-3.700000000E+012.3410714286E+01+
*       -1.850000000E+01               0
GRID*               5492               0-3.800000000E+012.2392857143E+01+
*       -1.850000000E+01               0
GRID*               5493               0-3.700000000E+012.1375000000E+01+
*       -1.850000000E+01               0
GRID*               5494               0-3.800000000E+012.0357142857E+01+
*       -1.850000000E+01               0
GRID*               5495               0-3.700000000E+011.9339285714E+01+
*       -1.850000000E+01               0
GRID*               5496               0-3.800000000E+011.8321428571E+01+
*       -1.850000000E+01               0
GRID*               5497               0-3.700000000E+011.7303571429E+01+
*       -1.850000000E+01               0
GRID*               5498               0-3.800000000E+011.6285714286E+01+
*       -1.850000000E+01               0
GRID*               5499               0-3.700000000E+011.5267857143E+01+
*       -1.850000000E+01               0
GRID*               5500               0-3.800000000E+011.4250000000E+01+
*       -1.850000000E+01               0
GRID*               5501               0-3.700000000E+011.3232142857E+01+
*       -1.850000000E+01               0
GRID*               5502               0-3.800000000E+011.2214285714E+01+
*       -1.850000000E+01               0
GRID*               5503               0-3.700000000E+011.1196428571E+01+
*       -1.850000000E+01               0
GRID*               5504               0-3.800000000E+011.0178571429E+01+
*       -1.850000000E+01               0
GRID*               5505               0-3.700000000E+019.1607142857E+00+
*       -1.850000000E+01               0
GRID*               5506               0-3.800000000E+018.1428571429E+00+
*       -1.850000000E+01               0
GRID*               5507               0-3.700000000E+017.1250000000E+00+
*       -1.850000000E+01               0
GRID*               5508               0-3.800000000E+016.1071428571E+00+
*       -1.850000000E+01               0
GRID*               5509               0-3.700000000E+015.0892857143E+00+
*       -1.850000000E+01               0
GRID*               5510               0-3.800000000E+014.0714285714E+00+
*       -1.850000000E+01               0
GRID*               5511               0-3.700000000E+013.0535714286E+00+
*       -1.850000000E+01               0
GRID*               5512               0-3.800000000E+012.0357142857E+00+
*       -1.850000000E+01               0
GRID*               5513               0-3.600000000E+012.6464285714E+01+
*       -1.850000000E+01               0
GRID*               5514               0-3.500000000E+012.5446428571E+01+
*       -1.850000000E+01               0
GRID*               5515               0-3.600000000E+012.4428571429E+01+
*       -1.850000000E+01               0
GRID*               5516               0-3.500000000E+012.3410714286E+01+
*       -1.850000000E+01               0
GRID*               5517               0-3.600000000E+012.2392857143E+01+
*       -1.850000000E+01               0
GRID*               5518               0-3.500000000E+012.1375000000E+01+
*       -1.850000000E+01               0
GRID*               5519               0-3.600000000E+012.0357142857E+01+
*       -1.850000000E+01               0
GRID*               5520               0-3.500000000E+011.9339285714E+01+
*       -1.850000000E+01               0
GRID*               5521               0-3.600000000E+011.8321428571E+01+
*       -1.850000000E+01               0
GRID*               5522               0-3.500000000E+011.7303571429E+01+
*       -1.850000000E+01               0
GRID*               5523               0-3.600000000E+011.6285714286E+01+
*       -1.850000000E+01               0
GRID*               5524               0-3.500000000E+011.5267857143E+01+
*       -1.850000000E+01               0
GRID*               5525               0-3.600000000E+011.4250000000E+01+
*       -1.850000000E+01               0
GRID*               5526               0-3.500000000E+011.3232142857E+01+
*       -1.850000000E+01               0
GRID*               5527               0-3.600000000E+011.2214285714E+01+
*       -1.850000000E+01               0
GRID*               5528               0-3.500000000E+011.1196428571E+01+
*       -1.850000000E+01               0
GRID*               5529               0-3.600000000E+011.0178571429E+01+
*       -1.850000000E+01               0
GRID*               5530               0-3.500000000E+019.1607142857E+00+
*       -1.850000000E+01               0
GRID*               5531               0-3.600000000E+018.1428571429E+00+
*       -1.850000000E+01               0
GRID*               5532               0-3.500000000E+017.1250000000E+00+
*       -1.850000000E+01               0
GRID*               5533               0-3.600000000E+016.1071428571E+00+
*       -1.850000000E+01               0
GRID*               5534               0-3.500000000E+015.0892857143E+00+
*       -1.850000000E+01               0
GRID*               5535               0-3.600000000E+014.0714285714E+00+
*       -1.850000000E+01               0
GRID*               5536               0-3.500000000E+013.0535714286E+00+
*       -1.850000000E+01               0
GRID*               5537               0-3.600000000E+012.0357142857E+00+
*       -1.850000000E+01               0
GRID*               5538               0-3.400000000E+012.6464285714E+01+
*       -1.850000000E+01               0
GRID*               5539               0-3.300000000E+012.5446428571E+01+
*       -1.850000000E+01               0
GRID*               5540               0-3.400000000E+012.4428571429E+01+
*       -1.850000000E+01               0
GRID*               5541               0-3.300000000E+012.3410714286E+01+
*       -1.850000000E+01               0
GRID*               5542               0-3.400000000E+012.2392857143E+01+
*       -1.850000000E+01               0
GRID*               5543               0-3.300000000E+012.1375000000E+01+
*       -1.850000000E+01               0
GRID*               5544               0-3.400000000E+012.0357142857E+01+
*       -1.850000000E+01               0
GRID*               5545               0-3.300000000E+011.9339285714E+01+
*       -1.850000000E+01               0
GRID*               5546               0-3.400000000E+011.8321428571E+01+
*       -1.850000000E+01               0
GRID*               5547               0-3.300000000E+011.7303571429E+01+
*       -1.850000000E+01               0
GRID*               5548               0-3.400000000E+011.6285714286E+01+
*       -1.850000000E+01               0
GRID*               5549               0-3.300000000E+011.5267857143E+01+
*       -1.850000000E+01               0
GRID*               5550               0-3.400000000E+011.4250000000E+01+
*       -1.850000000E+01               0
GRID*               5551               0-3.300000000E+011.3232142857E+01+
*       -1.850000000E+01               0
GRID*               5552               0-3.400000000E+011.2214285714E+01+
*       -1.850000000E+01               0
GRID*               5553               0-3.300000000E+011.1196428571E+01+
*       -1.850000000E+01               0
GRID*               5554               0-3.400000000E+011.0178571429E+01+
*       -1.850000000E+01               0
GRID*               5555               0-3.300000000E+019.1607142857E+00+
*       -1.850000000E+01               0
GRID*               5556               0-3.400000000E+018.1428571429E+00+
*       -1.850000000E+01               0
GRID*               5557               0-3.300000000E+017.1250000000E+00+
*       -1.850000000E+01               0
GRID*               5558               0-3.400000000E+016.1071428571E+00+
*       -1.850000000E+01               0
GRID*               5559               0-3.300000000E+015.0892857143E+00+
*       -1.850000000E+01               0
GRID*               5560               0-3.400000000E+014.0714285714E+00+
*       -1.850000000E+01               0
GRID*               5561               0-3.300000000E+013.0535714286E+00+
*       -1.850000000E+01               0
GRID*               5562               0-3.400000000E+012.0357142857E+00+
*       -1.850000000E+01               0
GRID*               5563               0-3.200000000E+012.6464285714E+01+
*       -1.850000000E+01               0
GRID*               5564               0-3.100000000E+012.5446428571E+01+
*       -1.850000000E+01               0
GRID*               5565               0-3.200000000E+012.4428571429E+01+
*       -1.850000000E+01               0
GRID*               5566               0-3.100000000E+012.3410714286E+01+
*       -1.850000000E+01               0
GRID*               5567               0-3.200000000E+012.2392857143E+01+
*       -1.850000000E+01               0
GRID*               5568               0-3.100000000E+012.1375000000E+01+
*       -1.850000000E+01               0
GRID*               5569               0-3.200000000E+012.0357142857E+01+
*       -1.850000000E+01               0
GRID*               5570               0-3.100000000E+011.9339285714E+01+
*       -1.850000000E+01               0
GRID*               5571               0-3.200000000E+011.8321428571E+01+
*       -1.850000000E+01               0
GRID*               5572               0-3.100000000E+011.7303571429E+01+
*       -1.850000000E+01               0
GRID*               5573               0-3.200000000E+011.6285714286E+01+
*       -1.850000000E+01               0
GRID*               5574               0-3.100000000E+011.5267857143E+01+
*       -1.850000000E+01               0
GRID*               5575               0-3.200000000E+011.4250000000E+01+
*       -1.850000000E+01               0
GRID*               5576               0-3.100000000E+011.3232142857E+01+
*       -1.850000000E+01               0
GRID*               5577               0-3.200000000E+011.2214285714E+01+
*       -1.850000000E+01               0
GRID*               5578               0-3.100000000E+011.1196428571E+01+
*       -1.850000000E+01               0
GRID*               5579               0-3.200000000E+011.0178571429E+01+
*       -1.850000000E+01               0
GRID*               5580               0-3.100000000E+019.1607142857E+00+
*       -1.850000000E+01               0
GRID*               5581               0-3.200000000E+018.1428571429E+00+
*       -1.850000000E+01               0
GRID*               5582               0-3.100000000E+017.1250000000E+00+
*       -1.850000000E+01               0
GRID*               5583               0-3.200000000E+016.1071428571E+00+
*       -1.850000000E+01               0
GRID*               5584               0-3.100000000E+015.0892857143E+00+
*       -1.850000000E+01               0
GRID*               5585               0-3.200000000E+014.0714285714E+00+
*       -1.850000000E+01               0
GRID*               5586               0-3.100000000E+013.0535714286E+00+
*       -1.850000000E+01               0
GRID*               5587               0-3.200000000E+012.0357142857E+00+
*       -1.850000000E+01               0
GRID*               5588               0-3.000000000E+012.6464285714E+01+
*       -1.850000000E+01               0
GRID*               5589               0-2.900000000E+012.5446428571E+01+
*       -1.850000000E+01               0
GRID*               5590               0-3.000000000E+012.4428571429E+01+
*       -1.850000000E+01               0
GRID*               5591               0-2.900000000E+012.3410714286E+01+
*       -1.850000000E+01               0
GRID*               5592               0-3.000000000E+012.2392857143E+01+
*       -1.850000000E+01               0
GRID*               5593               0-2.900000000E+012.1375000000E+01+
*       -1.850000000E+01               0
GRID*               5594               0-3.000000000E+012.0357142857E+01+
*       -1.850000000E+01               0
GRID*               5595               0-2.900000000E+011.9339285714E+01+
*       -1.850000000E+01               0
GRID*               5596               0-3.000000000E+011.8321428571E+01+
*       -1.850000000E+01               0
GRID*               5597               0-2.900000000E+011.7303571429E+01+
*       -1.850000000E+01               0
GRID*               5598               0-3.000000000E+011.6285714286E+01+
*       -1.850000000E+01               0
GRID*               5599               0-2.900000000E+011.5267857143E+01+
*       -1.850000000E+01               0
GRID*               5600               0-3.000000000E+011.4250000000E+01+
*       -1.850000000E+01               0
GRID*               5601               0-2.900000000E+011.3232142857E+01+
*       -1.850000000E+01               0
GRID*               5602               0-3.000000000E+011.2214285714E+01+
*       -1.850000000E+01               0
GRID*               5603               0-2.900000000E+011.1196428571E+01+
*       -1.850000000E+01               0
GRID*               5604               0-3.000000000E+011.0178571429E+01+
*       -1.850000000E+01               0
GRID*               5605               0-2.900000000E+019.1607142857E+00+
*       -1.850000000E+01               0
GRID*               5606               0-3.000000000E+018.1428571429E+00+
*       -1.850000000E+01               0
GRID*               5607               0-2.900000000E+017.1250000000E+00+
*       -1.850000000E+01               0
GRID*               5608               0-3.000000000E+016.1071428571E+00+
*       -1.850000000E+01               0
GRID*               5609               0-2.900000000E+015.0892857143E+00+
*       -1.850000000E+01               0
GRID*               5610               0-3.000000000E+014.0714285714E+00+
*       -1.850000000E+01               0
GRID*               5611               0-2.900000000E+013.0535714286E+00+
*       -1.850000000E+01               0
GRID*               5612               0-3.000000000E+012.0357142857E+00+
*       -1.850000000E+01               0
GRID*               5613               0-2.800000000E+012.6464285714E+01+
*       -1.850000000E+01               0
GRID*               5614               0-2.700000000E+012.5446428571E+01+
*       -1.850000000E+01               0
GRID*               5615               0-2.800000000E+012.4428571429E+01+
*       -1.850000000E+01               0
GRID*               5616               0-2.700000000E+012.3410714286E+01+
*       -1.850000000E+01               0
GRID*               5617               0-2.800000000E+012.2392857143E+01+
*       -1.850000000E+01               0
GRID*               5618               0-2.700000000E+012.1375000000E+01+
*       -1.850000000E+01               0
GRID*               5619               0-2.800000000E+012.0357142857E+01+
*       -1.850000000E+01               0
GRID*               5620               0-2.700000000E+011.9339285714E+01+
*       -1.850000000E+01               0
GRID*               5621               0-2.800000000E+011.8321428571E+01+
*       -1.850000000E+01               0
GRID*               5622               0-2.700000000E+011.7303571429E+01+
*       -1.850000000E+01               0
GRID*               5623               0-2.800000000E+011.6285714286E+01+
*       -1.850000000E+01               0
GRID*               5624               0-2.700000000E+011.5267857143E+01+
*       -1.850000000E+01               0
GRID*               5625               0-2.800000000E+011.4250000000E+01+
*       -1.850000000E+01               0
GRID*               5626               0-2.700000000E+011.3232142857E+01+
*       -1.850000000E+01               0
GRID*               5627               0-2.800000000E+011.2214285714E+01+
*       -1.850000000E+01               0
GRID*               5628               0-2.700000000E+011.1196428571E+01+
*       -1.850000000E+01               0
GRID*               5629               0-2.800000000E+011.0178571429E+01+
*       -1.850000000E+01               0
GRID*               5630               0-2.700000000E+019.1607142857E+00+
*       -1.850000000E+01               0
GRID*               5631               0-2.800000000E+018.1428571429E+00+
*       -1.850000000E+01               0
GRID*               5632               0-2.700000000E+017.1250000000E+00+
*       -1.850000000E+01               0
GRID*               5633               0-2.800000000E+016.1071428571E+00+
*       -1.850000000E+01               0
GRID*               5634               0-2.700000000E+015.0892857143E+00+
*       -1.850000000E+01               0
GRID*               5635               0-2.800000000E+014.0714285714E+00+
*       -1.850000000E+01               0
GRID*               5636               0-2.700000000E+013.0535714286E+00+
*       -1.850000000E+01               0
GRID*               5637               0-2.800000000E+012.0357142857E+00+
*       -1.850000000E+01               0
GRID*               5638               0-2.600000000E+012.6464285714E+01+
*       -1.850000000E+01               0
GRID*               5639               0-2.500000000E+012.5446428571E+01+
*       -1.850000000E+01               0
GRID*               5640               0-2.600000000E+012.4428571429E+01+
*       -1.850000000E+01               0
GRID*               5641               0-2.500000000E+012.3410714286E+01+
*       -1.850000000E+01               0
GRID*               5642               0-2.600000000E+012.2392857143E+01+
*       -1.850000000E+01               0
GRID*               5643               0-2.500000000E+012.1375000000E+01+
*       -1.850000000E+01               0
GRID*               5644               0-2.600000000E+012.0357142857E+01+
*       -1.850000000E+01               0
GRID*               5645               0-2.500000000E+011.9339285714E+01+
*       -1.850000000E+01               0
GRID*               5646               0-2.600000000E+011.8321428571E+01+
*       -1.850000000E+01               0
GRID*               5647               0-2.500000000E+011.7303571429E+01+
*       -1.850000000E+01               0
GRID*               5648               0-2.600000000E+011.6285714286E+01+
*       -1.850000000E+01               0
GRID*               5649               0-2.500000000E+011.5267857143E+01+
*       -1.850000000E+01               0
GRID*               5650               0-2.600000000E+011.4250000000E+01+
*       -1.850000000E+01               0
GRID*               5651               0-2.500000000E+011.3232142857E+01+
*       -1.850000000E+01               0
GRID*               5652               0-2.600000000E+011.2214285714E+01+
*       -1.850000000E+01               0
GRID*               5653               0-2.500000000E+011.1196428571E+01+
*       -1.850000000E+01               0
GRID*               5654               0-2.600000000E+011.0178571429E+01+
*       -1.850000000E+01               0
GRID*               5655               0-2.500000000E+019.1607142857E+00+
*       -1.850000000E+01               0
GRID*               5656               0-2.600000000E+018.1428571429E+00+
*       -1.850000000E+01               0
GRID*               5657               0-2.500000000E+017.1250000000E+00+
*       -1.850000000E+01               0
GRID*               5658               0-2.600000000E+016.1071428571E+00+
*       -1.850000000E+01               0
GRID*               5659               0-2.500000000E+015.0892857143E+00+
*       -1.850000000E+01               0
GRID*               5660               0-2.600000000E+014.0714285714E+00+
*       -1.850000000E+01               0
GRID*               5661               0-2.500000000E+013.0535714286E+00+
*       -1.850000000E+01               0
GRID*               5662               0-2.600000000E+012.0357142857E+00+
*       -1.850000000E+01               0
GRID*               5663               0-2.400000000E+012.6464285714E+01+
*       -1.850000000E+01               0
GRID*               5664               0-2.300000000E+012.5446428571E+01+
*       -1.850000000E+01               0
GRID*               5665               0-2.400000000E+012.4428571429E+01+
*       -1.850000000E+01               0
GRID*               5666               0-2.300000000E+012.3410714286E+01+
*       -1.850000000E+01               0
GRID*               5667               0-2.400000000E+012.2392857143E+01+
*       -1.850000000E+01               0
GRID*               5668               0-2.300000000E+012.1375000000E+01+
*       -1.850000000E+01               0
GRID*               5669               0-2.400000000E+012.0357142857E+01+
*       -1.850000000E+01               0
GRID*               5670               0-2.300000000E+011.9339285714E+01+
*       -1.850000000E+01               0
GRID*               5671               0-2.400000000E+011.8321428571E+01+
*       -1.850000000E+01               0
GRID*               5672               0-2.300000000E+011.7303571429E+01+
*       -1.850000000E+01               0
GRID*               5673               0-2.400000000E+011.6285714286E+01+
*       -1.850000000E+01               0
GRID*               5674               0-2.300000000E+011.5267857143E+01+
*       -1.850000000E+01               0
GRID*               5675               0-2.400000000E+011.4250000000E+01+
*       -1.850000000E+01               0
GRID*               5676               0-2.300000000E+011.3232142857E+01+
*       -1.850000000E+01               0
GRID*               5677               0-2.400000000E+011.2214285714E+01+
*       -1.850000000E+01               0
GRID*               5678               0-2.300000000E+011.1196428571E+01+
*       -1.850000000E+01               0
GRID*               5679               0-2.400000000E+011.0178571429E+01+
*       -1.850000000E+01               0
GRID*               5680               0-2.300000000E+019.1607142857E+00+
*       -1.850000000E+01               0
GRID*               5681               0-2.400000000E+018.1428571429E+00+
*       -1.850000000E+01               0
GRID*               5682               0-2.300000000E+017.1250000000E+00+
*       -1.850000000E+01               0
GRID*               5683               0-2.400000000E+016.1071428571E+00+
*       -1.850000000E+01               0
GRID*               5684               0-2.300000000E+015.0892857143E+00+
*       -1.850000000E+01               0
GRID*               5685               0-2.400000000E+014.0714285714E+00+
*       -1.850000000E+01               0
GRID*               5686               0-2.300000000E+013.0535714286E+00+
*       -1.850000000E+01               0
GRID*               5687               0-2.400000000E+012.0357142857E+00+
*       -1.850000000E+01               0
GRID*               5688               0-2.200000000E+012.6464285714E+01+
*       -1.850000000E+01               0
GRID*               5689               0-2.100000000E+012.5446428571E+01+
*       -1.850000000E+01               0
GRID*               5690               0-2.200000000E+012.4428571429E+01+
*       -1.850000000E+01               0
GRID*               5691               0-2.100000000E+012.3410714286E+01+
*       -1.850000000E+01               0
GRID*               5692               0-2.200000000E+012.2392857143E+01+
*       -1.850000000E+01               0
GRID*               5693               0-2.100000000E+012.1375000000E+01+
*       -1.850000000E+01               0
GRID*               5694               0-2.200000000E+012.0357142857E+01+
*       -1.850000000E+01               0
GRID*               5695               0-2.100000000E+011.9339285714E+01+
*       -1.850000000E+01               0
GRID*               5696               0-2.200000000E+011.8321428571E+01+
*       -1.850000000E+01               0
GRID*               5697               0-2.100000000E+011.7303571429E+01+
*       -1.850000000E+01               0
GRID*               5698               0-2.200000000E+011.6285714286E+01+
*       -1.850000000E+01               0
GRID*               5699               0-2.100000000E+011.5267857143E+01+
*       -1.850000000E+01               0
GRID*               5700               0-2.200000000E+011.4250000000E+01+
*       -1.850000000E+01               0
GRID*               5701               0-2.100000000E+011.3232142857E+01+
*       -1.850000000E+01               0
GRID*               5702               0-2.200000000E+011.2214285714E+01+
*       -1.850000000E+01               0
GRID*               5703               0-2.100000000E+011.1196428571E+01+
*       -1.850000000E+01               0
GRID*               5704               0-2.200000000E+011.0178571429E+01+
*       -1.850000000E+01               0
GRID*               5705               0-2.100000000E+019.1607142857E+00+
*       -1.850000000E+01               0
GRID*               5706               0-2.200000000E+018.1428571429E+00+
*       -1.850000000E+01               0
GRID*               5707               0-2.100000000E+017.1250000000E+00+
*       -1.850000000E+01               0
GRID*               5708               0-2.200000000E+016.1071428571E+00+
*       -1.850000000E+01               0
GRID*               5709               0-2.100000000E+015.0892857143E+00+
*       -1.850000000E+01               0
GRID*               5710               0-2.200000000E+014.0714285714E+00+
*       -1.850000000E+01               0
GRID*               5711               0-2.100000000E+013.0535714286E+00+
*       -1.850000000E+01               0
GRID*               5712               0-2.200000000E+012.0357142857E+00+
*       -1.850000000E+01               0
GRID*               5713               0-2.000000000E+012.6464285714E+01+
*       -1.850000000E+01               0
GRID*               5714               0-1.900000000E+012.5446428571E+01+
*       -1.850000000E+01               0
GRID*               5715               0-2.000000000E+012.4428571429E+01+
*       -1.850000000E+01               0
GRID*               5716               0-1.900000000E+012.3410714286E+01+
*       -1.850000000E+01               0
GRID*               5717               0-2.000000000E+012.2392857143E+01+
*       -1.850000000E+01               0
GRID*               5718               0-1.900000000E+012.1375000000E+01+
*       -1.850000000E+01               0
GRID*               5719               0-2.000000000E+012.0357142857E+01+
*       -1.850000000E+01               0
GRID*               5720               0-1.900000000E+011.9339285714E+01+
*       -1.850000000E+01               0
GRID*               5721               0-2.000000000E+011.8321428571E+01+
*       -1.850000000E+01               0
GRID*               5722               0-1.900000000E+011.7303571429E+01+
*       -1.850000000E+01               0
GRID*               5723               0-2.000000000E+011.6285714286E+01+
*       -1.850000000E+01               0
GRID*               5724               0-1.900000000E+011.5267857143E+01+
*       -1.850000000E+01               0
GRID*               5725               0-2.000000000E+011.4250000000E+01+
*       -1.850000000E+01               0
GRID*               5726               0-1.900000000E+011.3232142857E+01+
*       -1.850000000E+01               0
GRID*               5727               0-2.000000000E+011.2214285714E+01+
*       -1.850000000E+01               0
GRID*               5728               0-1.900000000E+011.1196428571E+01+
*       -1.850000000E+01               0
GRID*               5729               0-2.000000000E+011.0178571429E+01+
*       -1.850000000E+01               0
GRID*               5730               0-1.900000000E+019.1607142857E+00+
*       -1.850000000E+01               0
GRID*               5731               0-2.000000000E+018.1428571429E+00+
*       -1.850000000E+01               0
GRID*               5732               0-1.900000000E+017.1250000000E+00+
*       -1.850000000E+01               0
GRID*               5733               0-2.000000000E+016.1071428571E+00+
*       -1.850000000E+01               0
GRID*               5734               0-1.900000000E+015.0892857143E+00+
*       -1.850000000E+01               0
GRID*               5735               0-2.000000000E+014.0714285714E+00+
*       -1.850000000E+01               0
GRID*               5736               0-1.900000000E+013.0535714286E+00+
*       -1.850000000E+01               0
GRID*               5737               0-2.000000000E+012.0357142857E+00+
*       -1.850000000E+01               0
GRID*               5738               0-1.800000000E+012.6464285714E+01+
*       -1.850000000E+01               0
GRID*               5739               0-1.700000000E+012.5446428571E+01+
*       -1.850000000E+01               0
GRID*               5740               0-1.800000000E+012.4428571429E+01+
*       -1.850000000E+01               0
GRID*               5741               0-1.700000000E+012.3410714286E+01+
*       -1.850000000E+01               0
GRID*               5742               0-1.800000000E+012.2392857143E+01+
*       -1.850000000E+01               0
GRID*               5743               0-1.700000000E+012.1375000000E+01+
*       -1.850000000E+01               0
GRID*               5744               0-1.800000000E+012.0357142857E+01+
*       -1.850000000E+01               0
GRID*               5745               0-1.700000000E+011.9339285714E+01+
*       -1.850000000E+01               0
GRID*               5746               0-1.800000000E+011.8321428571E+01+
*       -1.850000000E+01               0
GRID*               5747               0-1.700000000E+011.7303571429E+01+
*       -1.850000000E+01               0
GRID*               5748               0-1.800000000E+011.6285714286E+01+
*       -1.850000000E+01               0
GRID*               5749               0-1.700000000E+011.5267857143E+01+
*       -1.850000000E+01               0
GRID*               5750               0-1.800000000E+011.4250000000E+01+
*       -1.850000000E+01               0
GRID*               5751               0-1.700000000E+011.3232142857E+01+
*       -1.850000000E+01               0
GRID*               5752               0-1.800000000E+011.2214285714E+01+
*       -1.850000000E+01               0
GRID*               5753               0-1.700000000E+011.1196428571E+01+
*       -1.850000000E+01               0
GRID*               5754               0-1.800000000E+011.0178571429E+01+
*       -1.850000000E+01               0
GRID*               5755               0-1.700000000E+019.1607142857E+00+
*       -1.850000000E+01               0
GRID*               5756               0-1.800000000E+018.1428571429E+00+
*       -1.850000000E+01               0
GRID*               5757               0-1.700000000E+017.1250000000E+00+
*       -1.850000000E+01               0
GRID*               5758               0-1.800000000E+016.1071428571E+00+
*       -1.850000000E+01               0
GRID*               5759               0-1.700000000E+015.0892857143E+00+
*       -1.850000000E+01               0
GRID*               5760               0-1.800000000E+014.0714285714E+00+
*       -1.850000000E+01               0
GRID*               5761               0-1.700000000E+013.0535714286E+00+
*       -1.850000000E+01               0
GRID*               5762               0-1.800000000E+012.0357142857E+00+
*       -1.850000000E+01               0
GRID*               5763               0-1.600000000E+012.6464285714E+01+
*       -1.850000000E+01               0
GRID*               5764               0-1.500000000E+012.5446428571E+01+
*       -1.850000000E+01               0
GRID*               5765               0-1.600000000E+012.4428571429E+01+
*       -1.850000000E+01               0
GRID*               5766               0-1.500000000E+012.3410714286E+01+
*       -1.850000000E+01               0
GRID*               5767               0-1.600000000E+012.2392857143E+01+
*       -1.850000000E+01               0
GRID*               5768               0-1.500000000E+012.1375000000E+01+
*       -1.850000000E+01               0
GRID*               5769               0-1.600000000E+012.0357142857E+01+
*       -1.850000000E+01               0
GRID*               5770               0-1.500000000E+011.9339285714E+01+
*       -1.850000000E+01               0
GRID*               5771               0-1.600000000E+011.8321428571E+01+
*       -1.850000000E+01               0
GRID*               5772               0-1.500000000E+011.7303571429E+01+
*       -1.850000000E+01               0
GRID*               5773               0-1.600000000E+011.6285714286E+01+
*       -1.850000000E+01               0
GRID*               5774               0-1.500000000E+011.5267857143E+01+
*       -1.850000000E+01               0
GRID*               5775               0-1.600000000E+011.4250000000E+01+
*       -1.850000000E+01               0
GRID*               5776               0-1.500000000E+011.3232142857E+01+
*       -1.850000000E+01               0
GRID*               5777               0-1.600000000E+011.2214285714E+01+
*       -1.850000000E+01               0
GRID*               5778               0-1.500000000E+011.1196428571E+01+
*       -1.850000000E+01               0
GRID*               5779               0-1.600000000E+011.0178571429E+01+
*       -1.850000000E+01               0
GRID*               5780               0-1.500000000E+019.1607142857E+00+
*       -1.850000000E+01               0
GRID*               5781               0-1.600000000E+018.1428571429E+00+
*       -1.850000000E+01               0
GRID*               5782               0-1.500000000E+017.1250000000E+00+
*       -1.850000000E+01               0
GRID*               5783               0-1.600000000E+016.1071428571E+00+
*       -1.850000000E+01               0
GRID*               5784               0-1.500000000E+015.0892857143E+00+
*       -1.850000000E+01               0
GRID*               5785               0-1.600000000E+014.0714285714E+00+
*       -1.850000000E+01               0
GRID*               5786               0-1.500000000E+013.0535714286E+00+
*       -1.850000000E+01               0
GRID*               5787               0-1.600000000E+012.0357142857E+00+
*       -1.850000000E+01               0
GRID*               5788               0-1.400000000E+012.6464285714E+01+
*       -1.850000000E+01               0
GRID*               5789               0-1.300000000E+012.5446428571E+01+
*       -1.850000000E+01               0
GRID*               5790               0-1.400000000E+012.4428571429E+01+
*       -1.850000000E+01               0
GRID*               5791               0-1.300000000E+012.3410714286E+01+
*       -1.850000000E+01               0
GRID*               5792               0-1.400000000E+012.2392857143E+01+
*       -1.850000000E+01               0
GRID*               5793               0-1.300000000E+012.1375000000E+01+
*       -1.850000000E+01               0
GRID*               5794               0-1.400000000E+012.0357142857E+01+
*       -1.850000000E+01               0
GRID*               5795               0-1.300000000E+011.9339285714E+01+
*       -1.850000000E+01               0
GRID*               5796               0-1.400000000E+011.8321428571E+01+
*       -1.850000000E+01               0
GRID*               5797               0-1.300000000E+011.7303571429E+01+
*       -1.850000000E+01               0
GRID*               5798               0-1.400000000E+011.6285714286E+01+
*       -1.850000000E+01               0
GRID*               5799               0-1.300000000E+011.5267857143E+01+
*       -1.850000000E+01               0
GRID*               5800               0-1.400000000E+011.4250000000E+01+
*       -1.850000000E+01               0
GRID*               5801               0-1.300000000E+011.3232142857E+01+
*       -1.850000000E+01               0
GRID*               5802               0-1.400000000E+011.2214285714E+01+
*       -1.850000000E+01               0
GRID*               5803               0-1.300000000E+011.1196428571E+01+
*       -1.850000000E+01               0
GRID*               5804               0-1.400000000E+011.0178571429E+01+
*       -1.850000000E+01               0
GRID*               5805               0-1.300000000E+019.1607142857E+00+
*       -1.850000000E+01               0
GRID*               5806               0-1.400000000E+018.1428571429E+00+
*       -1.850000000E+01               0
GRID*               5807               0-1.300000000E+017.1250000000E+00+
*       -1.850000000E+01               0
GRID*               5808               0-1.400000000E+016.1071428571E+00+
*       -1.850000000E+01               0
GRID*               5809               0-1.300000000E+015.0892857143E+00+
*       -1.850000000E+01               0
GRID*               5810               0-1.400000000E+014.0714285714E+00+
*       -1.850000000E+01               0
GRID*               5811               0-1.300000000E+013.0535714286E+00+
*       -1.850000000E+01               0
GRID*               5812               0-1.400000000E+012.0357142857E+00+
*       -1.850000000E+01               0
GRID*               5813               0-1.200000000E+012.6464285714E+01+
*       -1.850000000E+01               0
GRID*               5814               0-1.100000000E+012.5446428571E+01+
*       -1.850000000E+01               0
GRID*               5815               0-1.200000000E+012.4428571429E+01+
*       -1.850000000E+01               0
GRID*               5816               0-1.100000000E+012.3410714286E+01+
*       -1.850000000E+01               0
GRID*               5817               0-1.200000000E+012.2392857143E+01+
*       -1.850000000E+01               0
GRID*               5818               0-1.100000000E+012.1375000000E+01+
*       -1.850000000E+01               0
GRID*               5819               0-1.200000000E+012.0357142857E+01+
*       -1.850000000E+01               0
GRID*               5820               0-1.100000000E+011.9339285714E+01+
*       -1.850000000E+01               0
GRID*               5821               0-1.200000000E+011.8321428571E+01+
*       -1.850000000E+01               0
GRID*               5822               0-1.100000000E+011.7303571429E+01+
*       -1.850000000E+01               0
GRID*               5823               0-1.200000000E+011.6285714286E+01+
*       -1.850000000E+01               0
GRID*               5824               0-1.100000000E+011.5267857143E+01+
*       -1.850000000E+01               0
GRID*               5825               0-1.200000000E+011.4250000000E+01+
*       -1.850000000E+01               0
GRID*               5826               0-1.100000000E+011.3232142857E+01+
*       -1.850000000E+01               0
GRID*               5827               0-1.200000000E+011.2214285714E+01+
*       -1.850000000E+01               0
GRID*               5828               0-1.100000000E+011.1196428571E+01+
*       -1.850000000E+01               0
GRID*               5829               0-1.200000000E+011.0178571429E+01+
*       -1.850000000E+01               0
GRID*               5830               0-1.100000000E+019.1607142857E+00+
*       -1.850000000E+01               0
GRID*               5831               0-1.200000000E+018.1428571429E+00+
*       -1.850000000E+01               0
GRID*               5832               0-1.100000000E+017.1250000000E+00+
*       -1.850000000E+01               0
GRID*               5833               0-1.200000000E+016.1071428571E+00+
*       -1.850000000E+01               0
GRID*               5834               0-1.100000000E+015.0892857143E+00+
*       -1.850000000E+01               0
GRID*               5835               0-1.200000000E+014.0714285714E+00+
*       -1.850000000E+01               0
GRID*               5836               0-1.100000000E+013.0535714286E+00+
*       -1.850000000E+01               0
GRID*               5837               0-1.200000000E+012.0357142857E+00+
*       -1.850000000E+01               0
GRID*               5838               0-1.000000000E+012.6464285714E+01+
*       -1.850000000E+01               0
GRID*               5839               0-9.000000000E+002.5446428571E+01+
*       -1.850000000E+01               0
GRID*               5840               0-1.000000000E+012.4428571429E+01+
*       -1.850000000E+01               0
GRID*               5841               0-9.000000000E+002.3410714286E+01+
*       -1.850000000E+01               0
GRID*               5842               0-1.000000000E+012.2392857143E+01+
*       -1.850000000E+01               0
GRID*               5843               0-9.000000000E+002.1375000000E+01+
*       -1.850000000E+01               0
GRID*               5844               0-1.000000000E+012.0357142857E+01+
*       -1.850000000E+01               0
GRID*               5845               0-9.000000000E+001.9339285714E+01+
*       -1.850000000E+01               0
GRID*               5846               0-1.000000000E+011.8321428571E+01+
*       -1.850000000E+01               0
GRID*               5847               0-9.000000000E+001.7303571429E+01+
*       -1.850000000E+01               0
GRID*               5848               0-1.000000000E+011.6285714286E+01+
*       -1.850000000E+01               0
GRID*               5849               0-9.000000000E+001.5267857143E+01+
*       -1.850000000E+01               0
GRID*               5850               0-1.000000000E+011.4250000000E+01+
*       -1.850000000E+01               0
GRID*               5851               0-9.000000000E+001.3232142857E+01+
*       -1.850000000E+01               0
GRID*               5852               0-1.000000000E+011.2214285714E+01+
*       -1.850000000E+01               0
GRID*               5853               0-9.000000000E+001.1196428571E+01+
*       -1.850000000E+01               0
GRID*               5854               0-1.000000000E+011.0178571429E+01+
*       -1.850000000E+01               0
GRID*               5855               0-9.000000000E+009.1607142857E+00+
*       -1.850000000E+01               0
GRID*               5856               0-1.000000000E+018.1428571429E+00+
*       -1.850000000E+01               0
GRID*               5857               0-9.000000000E+007.1250000000E+00+
*       -1.850000000E+01               0
GRID*               5858               0-1.000000000E+016.1071428571E+00+
*       -1.850000000E+01               0
GRID*               5859               0-9.000000000E+005.0892857143E+00+
*       -1.850000000E+01               0
GRID*               5860               0-1.000000000E+014.0714285714E+00+
*       -1.850000000E+01               0
GRID*               5861               0-9.000000000E+003.0535714286E+00+
*       -1.850000000E+01               0
GRID*               5862               0-1.000000000E+012.0357142857E+00+
*       -1.850000000E+01               0
GRID*               5863               0-8.000000000E+002.6464285714E+01+
*       -1.850000000E+01               0
GRID*               5864               0-7.000000000E+002.5446428571E+01+
*       -1.850000000E+01               0
GRID*               5865               0-8.000000000E+002.4428571429E+01+
*       -1.850000000E+01               0
GRID*               5866               0-7.000000000E+002.3410714286E+01+
*       -1.850000000E+01               0
GRID*               5867               0-8.000000000E+002.2392857143E+01+
*       -1.850000000E+01               0
GRID*               5868               0-7.000000000E+002.1375000000E+01+
*       -1.850000000E+01               0
GRID*               5869               0-8.000000000E+002.0357142857E+01+
*       -1.850000000E+01               0
GRID*               5870               0-7.000000000E+001.9339285714E+01+
*       -1.850000000E+01               0
GRID*               5871               0-8.000000000E+001.8321428571E+01+
*       -1.850000000E+01               0
GRID*               5872               0-7.000000000E+001.7303571429E+01+
*       -1.850000000E+01               0
GRID*               5873               0-8.000000000E+001.6285714286E+01+
*       -1.850000000E+01               0
GRID*               5874               0-7.000000000E+001.5267857143E+01+
*       -1.850000000E+01               0
GRID*               5875               0-8.000000000E+001.4250000000E+01+
*       -1.850000000E+01               0
GRID*               5876               0-7.000000000E+001.3232142857E+01+
*       -1.850000000E+01               0
GRID*               5877               0-8.000000000E+001.2214285714E+01+
*       -1.850000000E+01               0
GRID*               5878               0-7.000000000E+001.1196428571E+01+
*       -1.850000000E+01               0
GRID*               5879               0-8.000000000E+001.0178571429E+01+
*       -1.850000000E+01               0
GRID*               5880               0-7.000000000E+009.1607142857E+00+
*       -1.850000000E+01               0
GRID*               5881               0-8.000000000E+008.1428571429E+00+
*       -1.850000000E+01               0
GRID*               5882               0-7.000000000E+007.1250000000E+00+
*       -1.850000000E+01               0
GRID*               5883               0-8.000000000E+006.1071428571E+00+
*       -1.850000000E+01               0
GRID*               5884               0-7.000000000E+005.0892857143E+00+
*       -1.850000000E+01               0
GRID*               5885               0-8.000000000E+004.0714285714E+00+
*       -1.850000000E+01               0
GRID*               5886               0-7.000000000E+003.0535714286E+00+
*       -1.850000000E+01               0
GRID*               5887               0-8.000000000E+002.0357142857E+00+
*       -1.850000000E+01               0
GRID*               5888               0-6.000000000E+002.6464285714E+01+
*       -1.850000000E+01               0
GRID*               5889               0-5.000000000E+002.5446428571E+01+
*       -1.850000000E+01               0
GRID*               5890               0-6.000000000E+002.4428571429E+01+
*       -1.850000000E+01               0
GRID*               5891               0-5.000000000E+002.3410714286E+01+
*       -1.850000000E+01               0
GRID*               5892               0-6.000000000E+002.2392857143E+01+
*       -1.850000000E+01               0
GRID*               5893               0-5.000000000E+002.1375000000E+01+
*       -1.850000000E+01               0
GRID*               5894               0-6.000000000E+002.0357142857E+01+
*       -1.850000000E+01               0
GRID*               5895               0-5.000000000E+001.9339285714E+01+
*       -1.850000000E+01               0
GRID*               5896               0-6.000000000E+001.8321428571E+01+
*       -1.850000000E+01               0
GRID*               5897               0-5.000000000E+001.7303571429E+01+
*       -1.850000000E+01               0
GRID*               5898               0-6.000000000E+001.6285714286E+01+
*       -1.850000000E+01               0
GRID*               5899               0-5.000000000E+001.5267857143E+01+
*       -1.850000000E+01               0
GRID*               5900               0-6.000000000E+001.4250000000E+01+
*       -1.850000000E+01               0
GRID*               5901               0-5.000000000E+001.3232142857E+01+
*       -1.850000000E+01               0
GRID*               5902               0-6.000000000E+001.2214285714E+01+
*       -1.850000000E+01               0
GRID*               5903               0-5.000000000E+001.1196428571E+01+
*       -1.850000000E+01               0
GRID*               5904               0-6.000000000E+001.0178571429E+01+
*       -1.850000000E+01               0
GRID*               5905               0-5.000000000E+009.1607142857E+00+
*       -1.850000000E+01               0
GRID*               5906               0-6.000000000E+008.1428571429E+00+
*       -1.850000000E+01               0
GRID*               5907               0-5.000000000E+007.1250000000E+00+
*       -1.850000000E+01               0
GRID*               5908               0-6.000000000E+006.1071428571E+00+
*       -1.850000000E+01               0
GRID*               5909               0-5.000000000E+005.0892857143E+00+
*       -1.850000000E+01               0
GRID*               5910               0-6.000000000E+004.0714285714E+00+
*       -1.850000000E+01               0
GRID*               5911               0-5.000000000E+003.0535714286E+00+
*       -1.850000000E+01               0
GRID*               5912               0-6.000000000E+002.0357142857E+00+
*       -1.850000000E+01               0
GRID*               5913               0-4.000000000E+002.6464285714E+01+
*       -1.850000000E+01               0
GRID*               5914               0-3.000000000E+002.5446428571E+01+
*       -1.850000000E+01               0
GRID*               5915               0-4.000000000E+002.4428571429E+01+
*       -1.850000000E+01               0
GRID*               5916               0-3.000000000E+002.3410714286E+01+
*       -1.850000000E+01               0
GRID*               5917               0-4.000000000E+002.2392857143E+01+
*       -1.850000000E+01               0
GRID*               5918               0-3.000000000E+002.1375000000E+01+
*       -1.850000000E+01               0
GRID*               5919               0-4.000000000E+002.0357142857E+01+
*       -1.850000000E+01               0
GRID*               5920               0-3.000000000E+001.9339285714E+01+
*       -1.850000000E+01               0
GRID*               5921               0-4.000000000E+001.8321428571E+01+
*       -1.850000000E+01               0
GRID*               5922               0-3.000000000E+001.7303571429E+01+
*       -1.850000000E+01               0
GRID*               5923               0-4.000000000E+001.6285714286E+01+
*       -1.850000000E+01               0
GRID*               5924               0-3.000000000E+001.5267857143E+01+
*       -1.850000000E+01               0
GRID*               5925               0-4.000000000E+001.4250000000E+01+
*       -1.850000000E+01               0
GRID*               5926               0-3.000000000E+001.3232142857E+01+
*       -1.850000000E+01               0
GRID*               5927               0-4.000000000E+001.2214285714E+01+
*       -1.850000000E+01               0
GRID*               5928               0-3.000000000E+001.1196428571E+01+
*       -1.850000000E+01               0
GRID*               5929               0-4.000000000E+001.0178571429E+01+
*       -1.850000000E+01               0
GRID*               5930               0-3.000000000E+009.1607142857E+00+
*       -1.850000000E+01               0
GRID*               5931               0-4.000000000E+008.1428571429E+00+
*       -1.850000000E+01               0
GRID*               5932               0-3.000000000E+007.1250000000E+00+
*       -1.850000000E+01               0
GRID*               5933               0-4.000000000E+006.1071428571E+00+
*       -1.850000000E+01               0
GRID*               5934               0-3.000000000E+005.0892857143E+00+
*       -1.850000000E+01               0
GRID*               5935               0-4.000000000E+004.0714285714E+00+
*       -1.850000000E+01               0
GRID*               5936               0-3.000000000E+003.0535714286E+00+
*       -1.850000000E+01               0
GRID*               5937               0-4.000000000E+002.0357142857E+00+
*       -1.850000000E+01               0
GRID*               5938               0-2.000000000E+002.6464285714E+01+
*       -1.850000000E+01               0
GRID*               5939               0-1.000000000E+002.5446428571E+01+
*       -1.850000000E+01               0
GRID*               5940               0-2.000000000E+002.4428571429E+01+
*       -1.850000000E+01               0
GRID*               5941               0-1.000000000E+002.3410714286E+01+
*       -1.850000000E+01               0
GRID*               5942               0-2.000000000E+002.2392857143E+01+
*       -1.850000000E+01               0
GRID*               5943               0-1.000000000E+002.1375000000E+01+
*       -1.850000000E+01               0
GRID*               5944               0-2.000000000E+002.0357142857E+01+
*       -1.850000000E+01               0
GRID*               5945               0-1.000000000E+001.9339285714E+01+
*       -1.850000000E+01               0
GRID*               5946               0-2.000000000E+001.8321428571E+01+
*       -1.850000000E+01               0
GRID*               5947               0-1.000000000E+001.7303571429E+01+
*       -1.850000000E+01               0
GRID*               5948               0-2.000000000E+001.6285714286E+01+
*       -1.850000000E+01               0
GRID*               5949               0-1.000000000E+001.5267857143E+01+
*       -1.850000000E+01               0
GRID*               5950               0-2.000000000E+001.4250000000E+01+
*       -1.850000000E+01               0
GRID*               5951               0-1.000000000E+001.3232142857E+01+
*       -1.850000000E+01               0
GRID*               5952               0-2.000000000E+001.2214285714E+01+
*       -1.850000000E+01               0
GRID*               5953               0-1.000000000E+001.1196428571E+01+
*       -1.850000000E+01               0
GRID*               5954               0-2.000000000E+001.0178571429E+01+
*       -1.850000000E+01               0
GRID*               5955               0-1.000000000E+009.1607142857E+00+
*       -1.850000000E+01               0
GRID*               5956               0-2.000000000E+008.1428571429E+00+
*       -1.850000000E+01               0
GRID*               5957               0-1.000000000E+007.1250000000E+00+
*       -1.850000000E+01               0
GRID*               5958               0-2.000000000E+006.1071428571E+00+
*       -1.850000000E+01               0
GRID*               5959               0-1.000000000E+005.0892857143E+00+
*       -1.850000000E+01               0
GRID*               5960               0-2.000000000E+004.0714285714E+00+
*       -1.850000000E+01               0
GRID*               5961               0-1.000000000E+003.0535714286E+00+
*       -1.850000000E+01               0
GRID*               5962               0-2.000000000E+002.0357142857E+00+
*       -1.850000000E+01               0
GRID*               5963               00.0000000000E+002.6464285714E+01+
*       -1.850000000E+01               0
GRID*               5964               01.0000000000E+002.5446428571E+01+
*       -1.850000000E+01               0
GRID*               5965               03.0420110875E-142.4428571429E+01+
*       -1.850000000E+01               0
GRID*               5966               01.0000000000E+002.3410714286E+01+
*       -1.850000000E+01               0
GRID*               5967               03.7747582837E-142.2392857143E+01+
*       -1.850000000E+01               0
GRID*               5968               01.0000000000E+002.1375000000E+01+
*       -1.850000000E+01               0
GRID*               5969               01.7374990335E-142.0357142857E+01+
*       -1.850000000E+01               0
GRID*               5970               01.0000000000E+001.9339285714E+01+
*       -1.850000000E+01               0
GRID*               5971               02.3148150063E-141.8321428571E+01+
*       -1.850000000E+01               0
GRID*               5972               01.0000000000E+001.7303571429E+01+
*       -1.850000000E+01               0
GRID*               5973               03.7053693447E-151.6285714286E+01+
*       -1.850000000E+01               0
GRID*               5974               01.0000000000E+001.5267857143E+01+
*       -1.850000000E+01               0
GRID*               5975               02.3310787998E-141.4250000000E+01+
*       -1.850000000E+01               0
GRID*               5976               01.0000000000E+001.3232142857E+01+
*       -1.850000000E+01               0
GRID*               5977               0-3.705369345E-151.2214285714E+01+
*       -1.850000000E+01               0
GRID*               5978               01.0000000000E+001.1196428571E+01+
*       -1.850000000E+01               0
GRID*               5979               02.2204460493E-151.0178571429E+01+
*       -1.850000000E+01               0
GRID*               5980               01.0000000000E+009.1607142857E+00+
*       -1.850000000E+01               0
GRID*               5981               00.0000000000E+008.1428571429E+00+
*       -1.850000000E+01               0
GRID*               5982               01.0000000000E+007.1250000000E+00+
*       -1.850000000E+01               0
GRID*               5983               0-1.498801083E-156.1071428571E+00+
*       -1.850000000E+01               0
GRID*               5984               01.0000000000E+005.0892857143E+00+
*       -1.850000000E+01               0
GRID*               5985               0-6.494804694E-154.0714285714E+00+
*       -1.850000000E+01               0
GRID*               5986               01.0000000000E+003.0535714286E+00+
*       -1.850000000E+01               0
GRID*               5987               00.0000000000E+002.0357142857E+00+
*       -1.850000000E+01               0
GRID*               5988               02.0000000000E+002.6464285714E+01+
*       -1.850000000E+01               0
GRID*               5989               03.0000000000E+002.5446428571E+01+
*       -1.850000000E+01               0
GRID*               5990               02.0000000000E+002.4428571429E+01+
*       -1.850000000E+01               0
GRID*               5991               03.0000000000E+002.3410714286E+01+
*       -1.850000000E+01               0
GRID*               5992               02.0000000000E+002.2392857143E+01+
*       -1.850000000E+01               0
GRID*               5993               03.0000000000E+002.1375000000E+01+
*       -1.850000000E+01               0
GRID*               5994               02.0000000000E+002.0357142857E+01+
*       -1.850000000E+01               0
GRID*               5995               03.0000000000E+001.9339285714E+01+
*       -1.850000000E+01               0
GRID*               5996               02.0000000000E+001.8321428571E+01+
*       -1.850000000E+01               0
GRID*               5997               03.0000000000E+001.7303571429E+01+
*       -1.850000000E+01               0
GRID*               5998               02.0000000000E+001.6285714286E+01+
*       -1.850000000E+01               0
GRID*               5999               03.0000000000E+001.5267857143E+01+
*       -1.850000000E+01               0
GRID*               6000               02.0000000000E+001.4250000000E+01+
*       -1.850000000E+01               0
GRID*               6001               03.0000000000E+001.3232142857E+01+
*       -1.850000000E+01               0
GRID*               6002               02.0000000000E+001.2214285714E+01+
*       -1.850000000E+01               0
GRID*               6003               03.0000000000E+001.1196428571E+01+
*       -1.850000000E+01               0
GRID*               6004               02.0000000000E+001.0178571429E+01+
*       -1.850000000E+01               0
GRID*               6005               03.0000000000E+009.1607142857E+00+
*       -1.850000000E+01               0
GRID*               6006               02.0000000000E+008.1428571429E+00+
*       -1.850000000E+01               0
GRID*               6007               03.0000000000E+007.1250000000E+00+
*       -1.850000000E+01               0
GRID*               6008               02.0000000000E+006.1071428571E+00+
*       -1.850000000E+01               0
GRID*               6009               03.0000000000E+005.0892857143E+00+
*       -1.850000000E+01               0
GRID*               6010               02.0000000000E+004.0714285714E+00+
*       -1.850000000E+01               0
GRID*               6011               03.0000000000E+003.0535714286E+00+
*       -1.850000000E+01               0
GRID*               6012               02.0000000000E+002.0357142857E+00+
*       -1.850000000E+01               0
GRID*               6013               04.0000000000E+002.6464285714E+01+
*       -1.850000000E+01               0
GRID*               6014               05.0000000000E+002.5446428571E+01+
*       -1.850000000E+01               0
GRID*               6015               04.0000000000E+002.4428571429E+01+
*       -1.850000000E+01               0
GRID*               6016               05.0000000000E+002.3410714286E+01+
*       -1.850000000E+01               0
GRID*               6017               04.0000000000E+002.2392857143E+01+
*       -1.850000000E+01               0
GRID*               6018               05.0000000000E+002.1375000000E+01+
*       -1.850000000E+01               0
GRID*               6019               04.0000000000E+002.0357142857E+01+
*       -1.850000000E+01               0
GRID*               6020               05.0000000000E+001.9339285714E+01+
*       -1.850000000E+01               0
GRID*               6021               04.0000000000E+001.8321428571E+01+
*       -1.850000000E+01               0
GRID*               6022               05.0000000000E+001.7303571429E+01+
*       -1.850000000E+01               0
GRID*               6023               04.0000000000E+001.6285714286E+01+
*       -1.850000000E+01               0
GRID*               6024               05.0000000000E+001.5267857143E+01+
*       -1.850000000E+01               0
GRID*               6025               04.0000000000E+001.4250000000E+01+
*       -1.850000000E+01               0
GRID*               6026               05.0000000000E+001.3232142857E+01+
*       -1.850000000E+01               0
GRID*               6027               04.0000000000E+001.2214285714E+01+
*       -1.850000000E+01               0
GRID*               6028               05.0000000000E+001.1196428571E+01+
*       -1.850000000E+01               0
GRID*               6029               04.0000000000E+001.0178571429E+01+
*       -1.850000000E+01               0
GRID*               6030               05.0000000000E+009.1607142857E+00+
*       -1.850000000E+01               0
GRID*               6031               04.0000000000E+008.1428571429E+00+
*       -1.850000000E+01               0
GRID*               6032               05.0000000000E+007.1250000000E+00+
*       -1.850000000E+01               0
GRID*               6033               04.0000000000E+006.1071428571E+00+
*       -1.850000000E+01               0
GRID*               6034               05.0000000000E+005.0892857143E+00+
*       -1.850000000E+01               0
GRID*               6035               04.0000000000E+004.0714285714E+00+
*       -1.850000000E+01               0
GRID*               6036               05.0000000000E+003.0535714286E+00+
*       -1.850000000E+01               0
GRID*               6037               04.0000000000E+002.0357142857E+00+
*       -1.850000000E+01               0
GRID*               6038               06.0000000000E+002.6464285714E+01+
*       -1.850000000E+01               0
GRID*               6039               07.0000000000E+002.5446428571E+01+
*       -1.850000000E+01               0
GRID*               6040               06.0000000000E+002.4428571429E+01+
*       -1.850000000E+01               0
GRID*               6041               07.0000000000E+002.3410714286E+01+
*       -1.850000000E+01               0
GRID*               6042               06.0000000000E+002.2392857143E+01+
*       -1.850000000E+01               0
GRID*               6043               07.0000000000E+002.1375000000E+01+
*       -1.850000000E+01               0
GRID*               6044               06.0000000000E+002.0357142857E+01+
*       -1.850000000E+01               0
GRID*               6045               07.0000000000E+001.9339285714E+01+
*       -1.850000000E+01               0
GRID*               6046               06.0000000000E+001.8321428571E+01+
*       -1.850000000E+01               0
GRID*               6047               07.0000000000E+001.7303571429E+01+
*       -1.850000000E+01               0
GRID*               6048               06.0000000000E+001.6285714286E+01+
*       -1.850000000E+01               0
GRID*               6049               07.0000000000E+001.5267857143E+01+
*       -1.850000000E+01               0
GRID*               6050               06.0000000000E+001.4250000000E+01+
*       -1.850000000E+01               0
GRID*               6051               07.0000000000E+001.3232142857E+01+
*       -1.850000000E+01               0
GRID*               6052               06.0000000000E+001.2214285714E+01+
*       -1.850000000E+01               0
GRID*               6053               07.0000000000E+001.1196428571E+01+
*       -1.850000000E+01               0
GRID*               6054               06.0000000000E+001.0178571429E+01+
*       -1.850000000E+01               0
GRID*               6055               07.0000000000E+009.1607142857E+00+
*       -1.850000000E+01               0
GRID*               6056               06.0000000000E+008.1428571429E+00+
*       -1.850000000E+01               0
GRID*               6057               07.0000000000E+007.1250000000E+00+
*       -1.850000000E+01               0
GRID*               6058               06.0000000000E+006.1071428571E+00+
*       -1.850000000E+01               0
GRID*               6059               07.0000000000E+005.0892857143E+00+
*       -1.850000000E+01               0
GRID*               6060               06.0000000000E+004.0714285714E+00+
*       -1.850000000E+01               0
GRID*               6061               07.0000000000E+003.0535714286E+00+
*       -1.850000000E+01               0
GRID*               6062               06.0000000000E+002.0357142857E+00+
*       -1.850000000E+01               0
GRID*               6063               08.0000000000E+002.6464285714E+01+
*       -1.850000000E+01               0
GRID*               6064               09.0000000000E+002.5446428571E+01+
*       -1.850000000E+01               0
GRID*               6065               08.0000000000E+002.4428571429E+01+
*       -1.850000000E+01               0
GRID*               6066               09.0000000000E+002.3410714286E+01+
*       -1.850000000E+01               0
GRID*               6067               08.0000000000E+002.2392857143E+01+
*       -1.850000000E+01               0
GRID*               6068               09.0000000000E+002.1375000000E+01+
*       -1.850000000E+01               0
GRID*               6069               08.0000000000E+002.0357142857E+01+
*       -1.850000000E+01               0
GRID*               6070               09.0000000000E+001.9339285714E+01+
*       -1.850000000E+01               0
GRID*               6071               08.0000000000E+001.8321428571E+01+
*       -1.850000000E+01               0
GRID*               6072               09.0000000000E+001.7303571429E+01+
*       -1.850000000E+01               0
GRID*               6073               08.0000000000E+001.6285714286E+01+
*       -1.850000000E+01               0
GRID*               6074               09.0000000000E+001.5267857143E+01+
*       -1.850000000E+01               0
GRID*               6075               08.0000000000E+001.4250000000E+01+
*       -1.850000000E+01               0
GRID*               6076               09.0000000000E+001.3232142857E+01+
*       -1.850000000E+01               0
GRID*               6077               08.0000000000E+001.2214285714E+01+
*       -1.850000000E+01               0
GRID*               6078               09.0000000000E+001.1196428571E+01+
*       -1.850000000E+01               0
GRID*               6079               08.0000000000E+001.0178571429E+01+
*       -1.850000000E+01               0
GRID*               6080               09.0000000000E+009.1607142857E+00+
*       -1.850000000E+01               0
GRID*               6081               08.0000000000E+008.1428571429E+00+
*       -1.850000000E+01               0
GRID*               6082               09.0000000000E+007.1250000000E+00+
*       -1.850000000E+01               0
GRID*               6083               08.0000000000E+006.1071428571E+00+
*       -1.850000000E+01               0
GRID*               6084               09.0000000000E+005.0892857143E+00+
*       -1.850000000E+01               0
GRID*               6085               08.0000000000E+004.0714285714E+00+
*       -1.850000000E+01               0
GRID*               6086               09.0000000000E+003.0535714286E+00+
*       -1.850000000E+01               0
GRID*               6087               08.0000000000E+002.0357142857E+00+
*       -1.850000000E+01               0
GRID*               6088               01.0000000000E+012.6464285714E+01+
*       -1.850000000E+01               0
GRID*               6089               01.1000000000E+012.5446428571E+01+
*       -1.850000000E+01               0
GRID*               6090               01.0000000000E+012.4428571429E+01+
*       -1.850000000E+01               0
GRID*               6091               01.1000000000E+012.3410714286E+01+
*       -1.850000000E+01               0
GRID*               6092               01.0000000000E+012.2392857143E+01+
*       -1.850000000E+01               0
GRID*               6093               01.1000000000E+012.1375000000E+01+
*       -1.850000000E+01               0
GRID*               6094               01.0000000000E+012.0357142857E+01+
*       -1.850000000E+01               0
GRID*               6095               01.1000000000E+011.9339285714E+01+
*       -1.850000000E+01               0
GRID*               6096               01.0000000000E+011.8321428571E+01+
*       -1.850000000E+01               0
GRID*               6097               01.1000000000E+011.7303571429E+01+
*       -1.850000000E+01               0
GRID*               6098               01.0000000000E+011.6285714286E+01+
*       -1.850000000E+01               0
GRID*               6099               01.1000000000E+011.5267857143E+01+
*       -1.850000000E+01               0
GRID*               6100               01.0000000000E+011.4250000000E+01+
*       -1.850000000E+01               0
GRID*               6101               01.1000000000E+011.3232142857E+01+
*       -1.850000000E+01               0
GRID*               6102               01.0000000000E+011.2214285714E+01+
*       -1.850000000E+01               0
GRID*               6103               01.1000000000E+011.1196428571E+01+
*       -1.850000000E+01               0
GRID*               6104               01.0000000000E+011.0178571429E+01+
*       -1.850000000E+01               0
GRID*               6105               01.1000000000E+019.1607142857E+00+
*       -1.850000000E+01               0
GRID*               6106               01.0000000000E+018.1428571429E+00+
*       -1.850000000E+01               0
GRID*               6107               01.1000000000E+017.1250000000E+00+
*       -1.850000000E+01               0
GRID*               6108               01.0000000000E+016.1071428571E+00+
*       -1.850000000E+01               0
GRID*               6109               01.1000000000E+015.0892857143E+00+
*       -1.850000000E+01               0
GRID*               6110               01.0000000000E+014.0714285714E+00+
*       -1.850000000E+01               0
GRID*               6111               01.1000000000E+013.0535714286E+00+
*       -1.850000000E+01               0
GRID*               6112               01.0000000000E+012.0357142857E+00+
*       -1.850000000E+01               0
GRID*               6113               01.2000000000E+012.6464285714E+01+
*       -1.850000000E+01               0
GRID*               6114               01.3000000000E+012.5446428571E+01+
*       -1.850000000E+01               0
GRID*               6115               01.2000000000E+012.4428571429E+01+
*       -1.850000000E+01               0
GRID*               6116               01.3000000000E+012.3410714286E+01+
*       -1.850000000E+01               0
GRID*               6117               01.2000000000E+012.2392857143E+01+
*       -1.850000000E+01               0
GRID*               6118               01.3000000000E+012.1375000000E+01+
*       -1.850000000E+01               0
GRID*               6119               01.2000000000E+012.0357142857E+01+
*       -1.850000000E+01               0
GRID*               6120               01.3000000000E+011.9339285714E+01+
*       -1.850000000E+01               0
GRID*               6121               01.2000000000E+011.8321428571E+01+
*       -1.850000000E+01               0
GRID*               6122               01.3000000000E+011.7303571429E+01+
*       -1.850000000E+01               0
GRID*               6123               01.2000000000E+011.6285714286E+01+
*       -1.850000000E+01               0
GRID*               6124               01.3000000000E+011.5267857143E+01+
*       -1.850000000E+01               0
GRID*               6125               01.2000000000E+011.4250000000E+01+
*       -1.850000000E+01               0
GRID*               6126               01.3000000000E+011.3232142857E+01+
*       -1.850000000E+01               0
GRID*               6127               01.2000000000E+011.2214285714E+01+
*       -1.850000000E+01               0
GRID*               6128               01.3000000000E+011.1196428571E+01+
*       -1.850000000E+01               0
GRID*               6129               01.2000000000E+011.0178571429E+01+
*       -1.850000000E+01               0
GRID*               6130               01.3000000000E+019.1607142857E+00+
*       -1.850000000E+01               0
GRID*               6131               01.2000000000E+018.1428571429E+00+
*       -1.850000000E+01               0
GRID*               6132               01.3000000000E+017.1250000000E+00+
*       -1.850000000E+01               0
GRID*               6133               01.2000000000E+016.1071428571E+00+
*       -1.850000000E+01               0
GRID*               6134               01.3000000000E+015.0892857143E+00+
*       -1.850000000E+01               0
GRID*               6135               01.2000000000E+014.0714285714E+00+
*       -1.850000000E+01               0
GRID*               6136               01.3000000000E+013.0535714286E+00+
*       -1.850000000E+01               0
GRID*               6137               01.2000000000E+012.0357142857E+00+
*       -1.850000000E+01               0
GRID*               6138               01.4000000000E+012.6464285714E+01+
*       -1.850000000E+01               0
GRID*               6139               01.5000000000E+012.5446428571E+01+
*       -1.850000000E+01               0
GRID*               6140               01.4000000000E+012.4428571429E+01+
*       -1.850000000E+01               0
GRID*               6141               01.5000000000E+012.3410714286E+01+
*       -1.850000000E+01               0
GRID*               6142               01.4000000000E+012.2392857143E+01+
*       -1.850000000E+01               0
GRID*               6143               01.5000000000E+012.1375000000E+01+
*       -1.850000000E+01               0
GRID*               6144               01.4000000000E+012.0357142857E+01+
*       -1.850000000E+01               0
GRID*               6145               01.5000000000E+011.9339285714E+01+
*       -1.850000000E+01               0
GRID*               6146               01.4000000000E+011.8321428571E+01+
*       -1.850000000E+01               0
GRID*               6147               01.5000000000E+011.7303571429E+01+
*       -1.850000000E+01               0
GRID*               6148               01.4000000000E+011.6285714286E+01+
*       -1.850000000E+01               0
GRID*               6149               01.5000000000E+011.5267857143E+01+
*       -1.850000000E+01               0
GRID*               6150               01.4000000000E+011.4250000000E+01+
*       -1.850000000E+01               0
GRID*               6151               01.5000000000E+011.3232142857E+01+
*       -1.850000000E+01               0
GRID*               6152               01.4000000000E+011.2214285714E+01+
*       -1.850000000E+01               0
GRID*               6153               01.5000000000E+011.1196428571E+01+
*       -1.850000000E+01               0
GRID*               6154               01.4000000000E+011.0178571429E+01+
*       -1.850000000E+01               0
GRID*               6155               01.5000000000E+019.1607142857E+00+
*       -1.850000000E+01               0
GRID*               6156               01.4000000000E+018.1428571429E+00+
*       -1.850000000E+01               0
GRID*               6157               01.5000000000E+017.1250000000E+00+
*       -1.850000000E+01               0
GRID*               6158               01.4000000000E+016.1071428571E+00+
*       -1.850000000E+01               0
GRID*               6159               01.5000000000E+015.0892857143E+00+
*       -1.850000000E+01               0
GRID*               6160               01.4000000000E+014.0714285714E+00+
*       -1.850000000E+01               0
GRID*               6161               01.5000000000E+013.0535714286E+00+
*       -1.850000000E+01               0
GRID*               6162               01.4000000000E+012.0357142857E+00+
*       -1.850000000E+01               0
GRID*               6163               01.6000000000E+012.6464285714E+01+
*       -1.850000000E+01               0
GRID*               6164               01.7000000000E+012.5446428571E+01+
*       -1.850000000E+01               0
GRID*               6165               01.6000000000E+012.4428571429E+01+
*       -1.850000000E+01               0
GRID*               6166               01.7000000000E+012.3410714286E+01+
*       -1.850000000E+01               0
GRID*               6167               01.6000000000E+012.2392857143E+01+
*       -1.850000000E+01               0
GRID*               6168               01.7000000000E+012.1375000000E+01+
*       -1.850000000E+01               0
GRID*               6169               01.6000000000E+012.0357142857E+01+
*       -1.850000000E+01               0
GRID*               6170               01.7000000000E+011.9339285714E+01+
*       -1.850000000E+01               0
GRID*               6171               01.6000000000E+011.8321428571E+01+
*       -1.850000000E+01               0
GRID*               6172               01.7000000000E+011.7303571429E+01+
*       -1.850000000E+01               0
GRID*               6173               01.6000000000E+011.6285714286E+01+
*       -1.850000000E+01               0
GRID*               6174               01.7000000000E+011.5267857143E+01+
*       -1.850000000E+01               0
GRID*               6175               01.6000000000E+011.4250000000E+01+
*       -1.850000000E+01               0
GRID*               6176               01.7000000000E+011.3232142857E+01+
*       -1.850000000E+01               0
GRID*               6177               01.6000000000E+011.2214285714E+01+
*       -1.850000000E+01               0
GRID*               6178               01.7000000000E+011.1196428571E+01+
*       -1.850000000E+01               0
GRID*               6179               01.6000000000E+011.0178571429E+01+
*       -1.850000000E+01               0
GRID*               6180               01.7000000000E+019.1607142857E+00+
*       -1.850000000E+01               0
GRID*               6181               01.6000000000E+018.1428571429E+00+
*       -1.850000000E+01               0
GRID*               6182               01.7000000000E+017.1250000000E+00+
*       -1.850000000E+01               0
GRID*               6183               01.6000000000E+016.1071428571E+00+
*       -1.850000000E+01               0
GRID*               6184               01.7000000000E+015.0892857143E+00+
*       -1.850000000E+01               0
GRID*               6185               01.6000000000E+014.0714285714E+00+
*       -1.850000000E+01               0
GRID*               6186               01.7000000000E+013.0535714286E+00+
*       -1.850000000E+01               0
GRID*               6187               01.6000000000E+012.0357142857E+00+
*       -1.850000000E+01               0
GRID*               6188               01.8000000000E+012.6464285714E+01+
*       -1.850000000E+01               0
GRID*               6189               01.9000000000E+012.5446428571E+01+
*       -1.850000000E+01               0
GRID*               6190               01.8000000000E+012.4428571429E+01+
*       -1.850000000E+01               0
GRID*               6191               01.9000000000E+012.3410714286E+01+
*       -1.850000000E+01               0
GRID*               6192               01.8000000000E+012.2392857143E+01+
*       -1.850000000E+01               0
GRID*               6193               01.9000000000E+012.1375000000E+01+
*       -1.850000000E+01               0
GRID*               6194               01.8000000000E+012.0357142857E+01+
*       -1.850000000E+01               0
GRID*               6195               01.9000000000E+011.9339285714E+01+
*       -1.850000000E+01               0
GRID*               6196               01.8000000000E+011.8321428571E+01+
*       -1.850000000E+01               0
GRID*               6197               01.9000000000E+011.7303571429E+01+
*       -1.850000000E+01               0
GRID*               6198               01.8000000000E+011.6285714286E+01+
*       -1.850000000E+01               0
GRID*               6199               01.9000000000E+011.5267857143E+01+
*       -1.850000000E+01               0
GRID*               6200               01.8000000000E+011.4250000000E+01+
*       -1.850000000E+01               0
GRID*               6201               01.9000000000E+011.3232142857E+01+
*       -1.850000000E+01               0
GRID*               6202               01.8000000000E+011.2214285714E+01+
*       -1.850000000E+01               0
GRID*               6203               01.9000000000E+011.1196428571E+01+
*       -1.850000000E+01               0
GRID*               6204               01.8000000000E+011.0178571429E+01+
*       -1.850000000E+01               0
GRID*               6205               01.9000000000E+019.1607142857E+00+
*       -1.850000000E+01               0
GRID*               6206               01.8000000000E+018.1428571429E+00+
*       -1.850000000E+01               0
GRID*               6207               01.9000000000E+017.1250000000E+00+
*       -1.850000000E+01               0
GRID*               6208               01.8000000000E+016.1071428571E+00+
*       -1.850000000E+01               0
GRID*               6209               01.9000000000E+015.0892857143E+00+
*       -1.850000000E+01               0
GRID*               6210               01.8000000000E+014.0714285714E+00+
*       -1.850000000E+01               0
GRID*               6211               01.9000000000E+013.0535714286E+00+
*       -1.850000000E+01               0
GRID*               6212               01.8000000000E+012.0357142857E+00+
*       -1.850000000E+01               0
GRID*               6213               02.0000000000E+012.6464285714E+01+
*       -1.850000000E+01               0
GRID*               6214               02.1000000000E+012.5446428571E+01+
*       -1.850000000E+01               0
GRID*               6215               02.0000000000E+012.4428571429E+01+
*       -1.850000000E+01               0
GRID*               6216               02.1000000000E+012.3410714286E+01+
*       -1.850000000E+01               0
GRID*               6217               02.0000000000E+012.2392857143E+01+
*       -1.850000000E+01               0
GRID*               6218               02.1000000000E+012.1375000000E+01+
*       -1.850000000E+01               0
GRID*               6219               02.0000000000E+012.0357142857E+01+
*       -1.850000000E+01               0
GRID*               6220               02.1000000000E+011.9339285714E+01+
*       -1.850000000E+01               0
GRID*               6221               02.0000000000E+011.8321428571E+01+
*       -1.850000000E+01               0
GRID*               6222               02.1000000000E+011.7303571429E+01+
*       -1.850000000E+01               0
GRID*               6223               02.0000000000E+011.6285714286E+01+
*       -1.850000000E+01               0
GRID*               6224               02.1000000000E+011.5267857143E+01+
*       -1.850000000E+01               0
GRID*               6225               02.0000000000E+011.4250000000E+01+
*       -1.850000000E+01               0
GRID*               6226               02.1000000000E+011.3232142857E+01+
*       -1.850000000E+01               0
GRID*               6227               02.0000000000E+011.2214285714E+01+
*       -1.850000000E+01               0
GRID*               6228               02.1000000000E+011.1196428571E+01+
*       -1.850000000E+01               0
GRID*               6229               02.0000000000E+011.0178571429E+01+
*       -1.850000000E+01               0
GRID*               6230               02.1000000000E+019.1607142857E+00+
*       -1.850000000E+01               0
GRID*               6231               02.0000000000E+018.1428571429E+00+
*       -1.850000000E+01               0
GRID*               6232               02.1000000000E+017.1250000000E+00+
*       -1.850000000E+01               0
GRID*               6233               02.0000000000E+016.1071428571E+00+
*       -1.850000000E+01               0
GRID*               6234               02.1000000000E+015.0892857143E+00+
*       -1.850000000E+01               0
GRID*               6235               02.0000000000E+014.0714285714E+00+
*       -1.850000000E+01               0
GRID*               6236               02.1000000000E+013.0535714286E+00+
*       -1.850000000E+01               0
GRID*               6237               02.0000000000E+012.0357142857E+00+
*       -1.850000000E+01               0
GRID*               6238               02.2000000000E+012.6464285714E+01+
*       -1.850000000E+01               0
GRID*               6239               02.3000000000E+012.5446428571E+01+
*       -1.850000000E+01               0
GRID*               6240               02.2000000000E+012.4428571429E+01+
*       -1.850000000E+01               0
GRID*               6241               02.3000000000E+012.3410714286E+01+
*       -1.850000000E+01               0
GRID*               6242               02.2000000000E+012.2392857143E+01+
*       -1.850000000E+01               0
GRID*               6243               02.3000000000E+012.1375000000E+01+
*       -1.850000000E+01               0
GRID*               6244               02.2000000000E+012.0357142857E+01+
*       -1.850000000E+01               0
GRID*               6245               02.3000000000E+011.9339285714E+01+
*       -1.850000000E+01               0
GRID*               6246               02.2000000000E+011.8321428571E+01+
*       -1.850000000E+01               0
GRID*               6247               02.3000000000E+011.7303571429E+01+
*       -1.850000000E+01               0
GRID*               6248               02.2000000000E+011.6285714286E+01+
*       -1.850000000E+01               0
GRID*               6249               02.3000000000E+011.5267857143E+01+
*       -1.850000000E+01               0
GRID*               6250               02.2000000000E+011.4250000000E+01+
*       -1.850000000E+01               0
GRID*               6251               02.3000000000E+011.3232142857E+01+
*       -1.850000000E+01               0
GRID*               6252               02.2000000000E+011.2214285714E+01+
*       -1.850000000E+01               0
GRID*               6253               02.3000000000E+011.1196428571E+01+
*       -1.850000000E+01               0
GRID*               6254               02.2000000000E+011.0178571429E+01+
*       -1.850000000E+01               0
GRID*               6255               02.3000000000E+019.1607142857E+00+
*       -1.850000000E+01               0
GRID*               6256               02.2000000000E+018.1428571429E+00+
*       -1.850000000E+01               0
GRID*               6257               02.3000000000E+017.1250000000E+00+
*       -1.850000000E+01               0
GRID*               6258               02.2000000000E+016.1071428571E+00+
*       -1.850000000E+01               0
GRID*               6259               02.3000000000E+015.0892857143E+00+
*       -1.850000000E+01               0
GRID*               6260               02.2000000000E+014.0714285714E+00+
*       -1.850000000E+01               0
GRID*               6261               02.3000000000E+013.0535714286E+00+
*       -1.850000000E+01               0
GRID*               6262               02.2000000000E+012.0357142857E+00+
*       -1.850000000E+01               0
GRID*               6263               02.4000000000E+012.6464285714E+01+
*       -1.850000000E+01               0
GRID*               6264               02.5000000000E+012.5446428571E+01+
*       -1.850000000E+01               0
GRID*               6265               02.4000000000E+012.4428571429E+01+
*       -1.850000000E+01               0
GRID*               6266               02.5000000000E+012.3410714286E+01+
*       -1.850000000E+01               0
GRID*               6267               02.4000000000E+012.2392857143E+01+
*       -1.850000000E+01               0
GRID*               6268               02.5000000000E+012.1375000000E+01+
*       -1.850000000E+01               0
GRID*               6269               02.4000000000E+012.0357142857E+01+
*       -1.850000000E+01               0
GRID*               6270               02.5000000000E+011.9339285714E+01+
*       -1.850000000E+01               0
GRID*               6271               02.4000000000E+011.8321428571E+01+
*       -1.850000000E+01               0
GRID*               6272               02.5000000000E+011.7303571429E+01+
*       -1.850000000E+01               0
GRID*               6273               02.4000000000E+011.6285714286E+01+
*       -1.850000000E+01               0
GRID*               6274               02.5000000000E+011.5267857143E+01+
*       -1.850000000E+01               0
GRID*               6275               02.4000000000E+011.4250000000E+01+
*       -1.850000000E+01               0
GRID*               6276               02.5000000000E+011.3232142857E+01+
*       -1.850000000E+01               0
GRID*               6277               02.4000000000E+011.2214285714E+01+
*       -1.850000000E+01               0
GRID*               6278               02.5000000000E+011.1196428571E+01+
*       -1.850000000E+01               0
GRID*               6279               02.4000000000E+011.0178571429E+01+
*       -1.850000000E+01               0
GRID*               6280               02.5000000000E+019.1607142857E+00+
*       -1.850000000E+01               0
GRID*               6281               02.4000000000E+018.1428571429E+00+
*       -1.850000000E+01               0
GRID*               6282               02.5000000000E+017.1250000000E+00+
*       -1.850000000E+01               0
GRID*               6283               02.4000000000E+016.1071428571E+00+
*       -1.850000000E+01               0
GRID*               6284               02.5000000000E+015.0892857143E+00+
*       -1.850000000E+01               0
GRID*               6285               02.4000000000E+014.0714285714E+00+
*       -1.850000000E+01               0
GRID*               6286               02.5000000000E+013.0535714286E+00+
*       -1.850000000E+01               0
GRID*               6287               02.4000000000E+012.0357142857E+00+
*       -1.850000000E+01               0
GRID*               6288               02.6000000000E+012.6464285714E+01+
*       -1.850000000E+01               0
GRID*               6289               02.7000000000E+012.5446428571E+01+
*       -1.850000000E+01               0
GRID*               6290               02.6000000000E+012.4428571429E+01+
*       -1.850000000E+01               0
GRID*               6291               02.7000000000E+012.3410714286E+01+
*       -1.850000000E+01               0
GRID*               6292               02.6000000000E+012.2392857143E+01+
*       -1.850000000E+01               0
GRID*               6293               02.7000000000E+012.1375000000E+01+
*       -1.850000000E+01               0
GRID*               6294               02.6000000000E+012.0357142857E+01+
*       -1.850000000E+01               0
GRID*               6295               02.7000000000E+011.9339285714E+01+
*       -1.850000000E+01               0
GRID*               6296               02.6000000000E+011.8321428571E+01+
*       -1.850000000E+01               0
GRID*               6297               02.7000000000E+011.7303571429E+01+
*       -1.850000000E+01               0
GRID*               6298               02.6000000000E+011.6285714286E+01+
*       -1.850000000E+01               0
GRID*               6299               02.7000000000E+011.5267857143E+01+
*       -1.850000000E+01               0
GRID*               6300               02.6000000000E+011.4250000000E+01+
*       -1.850000000E+01               0
GRID*               6301               02.7000000000E+011.3232142857E+01+
*       -1.850000000E+01               0
GRID*               6302               02.6000000000E+011.2214285714E+01+
*       -1.850000000E+01               0
GRID*               6303               02.7000000000E+011.1196428571E+01+
*       -1.850000000E+01               0
GRID*               6304               02.6000000000E+011.0178571429E+01+
*       -1.850000000E+01               0
GRID*               6305               02.7000000000E+019.1607142857E+00+
*       -1.850000000E+01               0
GRID*               6306               02.6000000000E+018.1428571429E+00+
*       -1.850000000E+01               0
GRID*               6307               02.7000000000E+017.1250000000E+00+
*       -1.850000000E+01               0
GRID*               6308               02.6000000000E+016.1071428571E+00+
*       -1.850000000E+01               0
GRID*               6309               02.7000000000E+015.0892857143E+00+
*       -1.850000000E+01               0
GRID*               6310               02.6000000000E+014.0714285714E+00+
*       -1.850000000E+01               0
GRID*               6311               02.7000000000E+013.0535714286E+00+
*       -1.850000000E+01               0
GRID*               6312               02.6000000000E+012.0357142857E+00+
*       -1.850000000E+01               0
GRID*               6313               02.8000000000E+012.6464285714E+01+
*       -1.850000000E+01               0
GRID*               6314               02.9000000000E+012.5446428571E+01+
*       -1.850000000E+01               0
GRID*               6315               02.8000000000E+012.4428571429E+01+
*       -1.850000000E+01               0
GRID*               6316               02.9000000000E+012.3410714286E+01+
*       -1.850000000E+01               0
GRID*               6317               02.8000000000E+012.2392857143E+01+
*       -1.850000000E+01               0
GRID*               6318               02.9000000000E+012.1375000000E+01+
*       -1.850000000E+01               0
GRID*               6319               02.8000000000E+012.0357142857E+01+
*       -1.850000000E+01               0
GRID*               6320               02.9000000000E+011.9339285714E+01+
*       -1.850000000E+01               0
GRID*               6321               02.8000000000E+011.8321428571E+01+
*       -1.850000000E+01               0
GRID*               6322               02.9000000000E+011.7303571429E+01+
*       -1.850000000E+01               0
GRID*               6323               02.8000000000E+011.6285714286E+01+
*       -1.850000000E+01               0
GRID*               6324               02.9000000000E+011.5267857143E+01+
*       -1.850000000E+01               0
GRID*               6325               02.8000000000E+011.4250000000E+01+
*       -1.850000000E+01               0
GRID*               6326               02.9000000000E+011.3232142857E+01+
*       -1.850000000E+01               0
GRID*               6327               02.8000000000E+011.2214285714E+01+
*       -1.850000000E+01               0
GRID*               6328               02.9000000000E+011.1196428571E+01+
*       -1.850000000E+01               0
GRID*               6329               02.8000000000E+011.0178571429E+01+
*       -1.850000000E+01               0
GRID*               6330               02.9000000000E+019.1607142857E+00+
*       -1.850000000E+01               0
GRID*               6331               02.8000000000E+018.1428571429E+00+
*       -1.850000000E+01               0
GRID*               6332               02.9000000000E+017.1250000000E+00+
*       -1.850000000E+01               0
GRID*               6333               02.8000000000E+016.1071428571E+00+
*       -1.850000000E+01               0
GRID*               6334               02.9000000000E+015.0892857143E+00+
*       -1.850000000E+01               0
GRID*               6335               02.8000000000E+014.0714285714E+00+
*       -1.850000000E+01               0
GRID*               6336               02.9000000000E+013.0535714286E+00+
*       -1.850000000E+01               0
GRID*               6337               02.8000000000E+012.0357142857E+00+
*       -1.850000000E+01               0
GRID*               6338               03.0000000000E+012.6464285714E+01+
*       -1.850000000E+01               0
GRID*               6339               03.1000000000E+012.5446428571E+01+
*       -1.850000000E+01               0
GRID*               6340               03.0000000000E+012.4428571429E+01+
*       -1.850000000E+01               0
GRID*               6341               03.1000000000E+012.3410714286E+01+
*       -1.850000000E+01               0
GRID*               6342               03.0000000000E+012.2392857143E+01+
*       -1.850000000E+01               0
GRID*               6343               03.1000000000E+012.1375000000E+01+
*       -1.850000000E+01               0
GRID*               6344               03.0000000000E+012.0357142857E+01+
*       -1.850000000E+01               0
GRID*               6345               03.1000000000E+011.9339285714E+01+
*       -1.850000000E+01               0
GRID*               6346               03.0000000000E+011.8321428571E+01+
*       -1.850000000E+01               0
GRID*               6347               03.1000000000E+011.7303571429E+01+
*       -1.850000000E+01               0
GRID*               6348               03.0000000000E+011.6285714286E+01+
*       -1.850000000E+01               0
GRID*               6349               03.1000000000E+011.5267857143E+01+
*       -1.850000000E+01               0
GRID*               6350               03.0000000000E+011.4250000000E+01+
*       -1.850000000E+01               0
GRID*               6351               03.1000000000E+011.3232142857E+01+
*       -1.850000000E+01               0
GRID*               6352               03.0000000000E+011.2214285714E+01+
*       -1.850000000E+01               0
GRID*               6353               03.1000000000E+011.1196428571E+01+
*       -1.850000000E+01               0
GRID*               6354               03.0000000000E+011.0178571429E+01+
*       -1.850000000E+01               0
GRID*               6355               03.1000000000E+019.1607142857E+00+
*       -1.850000000E+01               0
GRID*               6356               03.0000000000E+018.1428571429E+00+
*       -1.850000000E+01               0
GRID*               6357               03.1000000000E+017.1250000000E+00+
*       -1.850000000E+01               0
GRID*               6358               03.0000000000E+016.1071428571E+00+
*       -1.850000000E+01               0
GRID*               6359               03.1000000000E+015.0892857143E+00+
*       -1.850000000E+01               0
GRID*               6360               03.0000000000E+014.0714285714E+00+
*       -1.850000000E+01               0
GRID*               6361               03.1000000000E+013.0535714286E+00+
*       -1.850000000E+01               0
GRID*               6362               03.0000000000E+012.0357142857E+00+
*       -1.850000000E+01               0
GRID*               6363               03.2000000000E+012.6464285714E+01+
*       -1.850000000E+01               0
GRID*               6364               03.3000000000E+012.5446428571E+01+
*       -1.850000000E+01               0
GRID*               6365               03.2000000000E+012.4428571429E+01+
*       -1.850000000E+01               0
GRID*               6366               03.3000000000E+012.3410714286E+01+
*       -1.850000000E+01               0
GRID*               6367               03.2000000000E+012.2392857143E+01+
*       -1.850000000E+01               0
GRID*               6368               03.3000000000E+012.1375000000E+01+
*       -1.850000000E+01               0
GRID*               6369               03.2000000000E+012.0357142857E+01+
*       -1.850000000E+01               0
GRID*               6370               03.3000000000E+011.9339285714E+01+
*       -1.850000000E+01               0
GRID*               6371               03.2000000000E+011.8321428571E+01+
*       -1.850000000E+01               0
GRID*               6372               03.3000000000E+011.7303571429E+01+
*       -1.850000000E+01               0
GRID*               6373               03.2000000000E+011.6285714286E+01+
*       -1.850000000E+01               0
GRID*               6374               03.3000000000E+011.5267857143E+01+
*       -1.850000000E+01               0
GRID*               6375               03.2000000000E+011.4250000000E+01+
*       -1.850000000E+01               0
GRID*               6376               03.3000000000E+011.3232142857E+01+
*       -1.850000000E+01               0
GRID*               6377               03.2000000000E+011.2214285714E+01+
*       -1.850000000E+01               0
GRID*               6378               03.3000000000E+011.1196428571E+01+
*       -1.850000000E+01               0
GRID*               6379               03.2000000000E+011.0178571429E+01+
*       -1.850000000E+01               0
GRID*               6380               03.3000000000E+019.1607142857E+00+
*       -1.850000000E+01               0
GRID*               6381               03.2000000000E+018.1428571429E+00+
*       -1.850000000E+01               0
GRID*               6382               03.3000000000E+017.1250000000E+00+
*       -1.850000000E+01               0
GRID*               6383               03.2000000000E+016.1071428571E+00+
*       -1.850000000E+01               0
GRID*               6384               03.3000000000E+015.0892857143E+00+
*       -1.850000000E+01               0
GRID*               6385               03.2000000000E+014.0714285714E+00+
*       -1.850000000E+01               0
GRID*               6386               03.3000000000E+013.0535714286E+00+
*       -1.850000000E+01               0
GRID*               6387               03.2000000000E+012.0357142857E+00+
*       -1.850000000E+01               0
GRID*               6388               03.4000000000E+012.6464285714E+01+
*       -1.850000000E+01               0
GRID*               6389               03.5000000000E+012.5446428571E+01+
*       -1.850000000E+01               0
GRID*               6390               03.4000000000E+012.4428571429E+01+
*       -1.850000000E+01               0
GRID*               6391               03.5000000000E+012.3410714286E+01+
*       -1.850000000E+01               0
GRID*               6392               03.4000000000E+012.2392857143E+01+
*       -1.850000000E+01               0
GRID*               6393               03.5000000000E+012.1375000000E+01+
*       -1.850000000E+01               0
GRID*               6394               03.4000000000E+012.0357142857E+01+
*       -1.850000000E+01               0
GRID*               6395               03.5000000000E+011.9339285714E+01+
*       -1.850000000E+01               0
GRID*               6396               03.4000000000E+011.8321428571E+01+
*       -1.850000000E+01               0
GRID*               6397               03.5000000000E+011.7303571429E+01+
*       -1.850000000E+01               0
GRID*               6398               03.4000000000E+011.6285714286E+01+
*       -1.850000000E+01               0
GRID*               6399               03.5000000000E+011.5267857143E+01+
*       -1.850000000E+01               0
GRID*               6400               03.4000000000E+011.4250000000E+01+
*       -1.850000000E+01               0
GRID*               6401               03.5000000000E+011.3232142857E+01+
*       -1.850000000E+01               0
GRID*               6402               03.4000000000E+011.2214285714E+01+
*       -1.850000000E+01               0
GRID*               6403               03.5000000000E+011.1196428571E+01+
*       -1.850000000E+01               0
GRID*               6404               03.4000000000E+011.0178571429E+01+
*       -1.850000000E+01               0
GRID*               6405               03.5000000000E+019.1607142857E+00+
*       -1.850000000E+01               0
GRID*               6406               03.4000000000E+018.1428571429E+00+
*       -1.850000000E+01               0
GRID*               6407               03.5000000000E+017.1250000000E+00+
*       -1.850000000E+01               0
GRID*               6408               03.4000000000E+016.1071428571E+00+
*       -1.850000000E+01               0
GRID*               6409               03.5000000000E+015.0892857143E+00+
*       -1.850000000E+01               0
GRID*               6410               03.4000000000E+014.0714285714E+00+
*       -1.850000000E+01               0
GRID*               6411               03.5000000000E+013.0535714286E+00+
*       -1.850000000E+01               0
GRID*               6412               03.4000000000E+012.0357142857E+00+
*       -1.850000000E+01               0
GRID*               6413               03.6000000000E+012.6464285714E+01+
*       -1.850000000E+01               0
GRID*               6414               03.7000000000E+012.5446428571E+01+
*       -1.850000000E+01               0
GRID*               6415               03.6000000000E+012.4428571429E+01+
*       -1.850000000E+01               0
GRID*               6416               03.7000000000E+012.3410714286E+01+
*       -1.850000000E+01               0
GRID*               6417               03.6000000000E+012.2392857143E+01+
*       -1.850000000E+01               0
GRID*               6418               03.7000000000E+012.1375000000E+01+
*       -1.850000000E+01               0
GRID*               6419               03.6000000000E+012.0357142857E+01+
*       -1.850000000E+01               0
GRID*               6420               03.7000000000E+011.9339285714E+01+
*       -1.850000000E+01               0
GRID*               6421               03.6000000000E+011.8321428571E+01+
*       -1.850000000E+01               0
GRID*               6422               03.7000000000E+011.7303571429E+01+
*       -1.850000000E+01               0
GRID*               6423               03.6000000000E+011.6285714286E+01+
*       -1.850000000E+01               0
GRID*               6424               03.7000000000E+011.5267857143E+01+
*       -1.850000000E+01               0
GRID*               6425               03.6000000000E+011.4250000000E+01+
*       -1.850000000E+01               0
GRID*               6426               03.7000000000E+011.3232142857E+01+
*       -1.850000000E+01               0
GRID*               6427               03.6000000000E+011.2214285714E+01+
*       -1.850000000E+01               0
GRID*               6428               03.7000000000E+011.1196428571E+01+
*       -1.850000000E+01               0
GRID*               6429               03.6000000000E+011.0178571429E+01+
*       -1.850000000E+01               0
GRID*               6430               03.7000000000E+019.1607142857E+00+
*       -1.850000000E+01               0
GRID*               6431               03.6000000000E+018.1428571429E+00+
*       -1.850000000E+01               0
GRID*               6432               03.7000000000E+017.1250000000E+00+
*       -1.850000000E+01               0
GRID*               6433               03.6000000000E+016.1071428571E+00+
*       -1.850000000E+01               0
GRID*               6434               03.7000000000E+015.0892857143E+00+
*       -1.850000000E+01               0
GRID*               6435               03.6000000000E+014.0714285714E+00+
*       -1.850000000E+01               0
GRID*               6436               03.7000000000E+013.0535714286E+00+
*       -1.850000000E+01               0
GRID*               6437               03.6000000000E+012.0357142857E+00+
*       -1.850000000E+01               0
GRID*               6438               03.8000000000E+012.6464285714E+01+
*       -1.850000000E+01               0
GRID*               6439               03.9000000000E+012.5446428571E+01+
*       -1.850000000E+01               0
GRID*               6440               03.8000000000E+012.4428571429E+01+
*       -1.850000000E+01               0
GRID*               6441               03.9000000000E+012.3410714286E+01+
*       -1.850000000E+01               0
GRID*               6442               03.8000000000E+012.2392857143E+01+
*       -1.850000000E+01               0
GRID*               6443               03.9000000000E+012.1375000000E+01+
*       -1.850000000E+01               0
GRID*               6444               03.8000000000E+012.0357142857E+01+
*       -1.850000000E+01               0
GRID*               6445               03.9000000000E+011.9339285714E+01+
*       -1.850000000E+01               0
GRID*               6446               03.8000000000E+011.8321428571E+01+
*       -1.850000000E+01               0
GRID*               6447               03.9000000000E+011.7303571429E+01+
*       -1.850000000E+01               0
GRID*               6448               03.8000000000E+011.6285714286E+01+
*       -1.850000000E+01               0
GRID*               6449               03.9000000000E+011.5267857143E+01+
*       -1.850000000E+01               0
GRID*               6450               03.8000000000E+011.4250000000E+01+
*       -1.850000000E+01               0
GRID*               6451               03.9000000000E+011.3232142857E+01+
*       -1.850000000E+01               0
GRID*               6452               03.8000000000E+011.2214285714E+01+
*       -1.850000000E+01               0
GRID*               6453               03.9000000000E+011.1196428571E+01+
*       -1.850000000E+01               0
GRID*               6454               03.8000000000E+011.0178571429E+01+
*       -1.850000000E+01               0
GRID*               6455               03.9000000000E+019.1607142857E+00+
*       -1.850000000E+01               0
GRID*               6456               03.8000000000E+018.1428571429E+00+
*       -1.850000000E+01               0
GRID*               6457               03.9000000000E+017.1250000000E+00+
*       -1.850000000E+01               0
GRID*               6458               03.8000000000E+016.1071428571E+00+
*       -1.850000000E+01               0
GRID*               6459               03.9000000000E+015.0892857143E+00+
*       -1.850000000E+01               0
GRID*               6460               03.8000000000E+014.0714285714E+00+
*       -1.850000000E+01               0
GRID*               6461               03.9000000000E+013.0535714286E+00+
*       -1.850000000E+01               0
GRID*               6462               03.8000000000E+012.0357142857E+00+
*       -1.850000000E+01               0
GRID*               6463               04.0000000000E+012.6464285714E+01+
*       -1.850000000E+01               0
GRID*               6464               04.1000000000E+012.5446428571E+01+
*       -1.850000000E+01               0
GRID*               6465               04.0000000000E+012.4428571429E+01+
*       -1.850000000E+01               0
GRID*               6466               04.1000000000E+012.3410714286E+01+
*       -1.850000000E+01               0
GRID*               6467               04.0000000000E+012.2392857143E+01+
*       -1.850000000E+01               0
GRID*               6468               04.1000000000E+012.1375000000E+01+
*       -1.850000000E+01               0
GRID*               6469               04.0000000000E+012.0357142857E+01+
*       -1.850000000E+01               0
GRID*               6470               04.1000000000E+011.9339285714E+01+
*       -1.850000000E+01               0
GRID*               6471               04.0000000000E+011.8321428571E+01+
*       -1.850000000E+01               0
GRID*               6472               04.1000000000E+011.7303571429E+01+
*       -1.850000000E+01               0
GRID*               6473               04.0000000000E+011.6285714286E+01+
*       -1.850000000E+01               0
GRID*               6474               04.1000000000E+011.5267857143E+01+
*       -1.850000000E+01               0
GRID*               6475               04.0000000000E+011.4250000000E+01+
*       -1.850000000E+01               0
GRID*               6476               04.1000000000E+011.3232142857E+01+
*       -1.850000000E+01               0
GRID*               6477               04.0000000000E+011.2214285714E+01+
*       -1.850000000E+01               0
GRID*               6478               04.1000000000E+011.1196428571E+01+
*       -1.850000000E+01               0
GRID*               6479               04.0000000000E+011.0178571429E+01+
*       -1.850000000E+01               0
GRID*               6480               04.1000000000E+019.1607142857E+00+
*       -1.850000000E+01               0
GRID*               6481               04.0000000000E+018.1428571429E+00+
*       -1.850000000E+01               0
GRID*               6482               04.1000000000E+017.1250000000E+00+
*       -1.850000000E+01               0
GRID*               6483               04.0000000000E+016.1071428571E+00+
*       -1.850000000E+01               0
GRID*               6484               04.1000000000E+015.0892857143E+00+
*       -1.850000000E+01               0
GRID*               6485               04.0000000000E+014.0714285714E+00+
*       -1.850000000E+01               0
GRID*               6486               04.1000000000E+013.0535714286E+00+
*       -1.850000000E+01               0
GRID*               6487               04.0000000000E+012.0357142857E+00+
*       -1.850000000E+01               0
GRID*               6488               04.2000000000E+012.6464285714E+01+
*       -1.850000000E+01               0
GRID*               6489               04.3000000000E+012.5446428571E+01+
*       -1.850000000E+01               0
GRID*               6490               04.2000000000E+012.4428571429E+01+
*       -1.850000000E+01               0
GRID*               6491               04.3000000000E+012.3410714286E+01+
*       -1.850000000E+01               0
GRID*               6492               04.2000000000E+012.2392857143E+01+
*       -1.850000000E+01               0
GRID*               6493               04.3000000000E+012.1375000000E+01+
*       -1.850000000E+01               0
GRID*               6494               04.2000000000E+012.0357142857E+01+
*       -1.850000000E+01               0
GRID*               6495               04.3000000000E+011.9339285714E+01+
*       -1.850000000E+01               0
GRID*               6496               04.2000000000E+011.8321428571E+01+
*       -1.850000000E+01               0
GRID*               6497               04.3000000000E+011.7303571429E+01+
*       -1.850000000E+01               0
GRID*               6498               04.2000000000E+011.6285714286E+01+
*       -1.850000000E+01               0
GRID*               6499               04.3000000000E+011.5267857143E+01+
*       -1.850000000E+01               0
GRID*               6500               04.2000000000E+011.4250000000E+01+
*       -1.850000000E+01               0
GRID*               6501               04.3000000000E+011.3232142857E+01+
*       -1.850000000E+01               0
GRID*               6502               04.2000000000E+011.2214285714E+01+
*       -1.850000000E+01               0
GRID*               6503               04.3000000000E+011.1196428571E+01+
*       -1.850000000E+01               0
GRID*               6504               04.2000000000E+011.0178571429E+01+
*       -1.850000000E+01               0
GRID*               6505               04.3000000000E+019.1607142857E+00+
*       -1.850000000E+01               0
GRID*               6506               04.2000000000E+018.1428571429E+00+
*       -1.850000000E+01               0
GRID*               6507               04.3000000000E+017.1250000000E+00+
*       -1.850000000E+01               0
GRID*               6508               04.2000000000E+016.1071428571E+00+
*       -1.850000000E+01               0
GRID*               6509               04.3000000000E+015.0892857143E+00+
*       -1.850000000E+01               0
GRID*               6510               04.2000000000E+014.0714285714E+00+
*       -1.850000000E+01               0
GRID*               6511               04.3000000000E+013.0535714286E+00+
*       -1.850000000E+01               0
GRID*               6512               04.2000000000E+012.0357142857E+00+
*       -1.850000000E+01               0
GRID*               6513               04.4000000000E+012.6464285714E+01+
*       -1.850000000E+01               0
GRID*               6514               04.5000000000E+012.5446428571E+01+
*       -1.850000000E+01               0
GRID*               6515               04.4000000000E+012.4428571429E+01+
*       -1.850000000E+01               0
GRID*               6516               04.5000000000E+012.3410714286E+01+
*       -1.850000000E+01               0
GRID*               6517               04.4000000000E+012.2392857143E+01+
*       -1.850000000E+01               0
GRID*               6518               04.5000000000E+012.1375000000E+01+
*       -1.850000000E+01               0
GRID*               6519               04.4000000000E+012.0357142857E+01+
*       -1.850000000E+01               0
GRID*               6520               04.5000000000E+011.9339285714E+01+
*       -1.850000000E+01               0
GRID*               6521               04.4000000000E+011.8321428571E+01+
*       -1.850000000E+01               0
GRID*               6522               04.5000000000E+011.7303571429E+01+
*       -1.850000000E+01               0
GRID*               6523               04.4000000000E+011.6285714286E+01+
*       -1.850000000E+01               0
GRID*               6524               04.5000000000E+011.5267857143E+01+
*       -1.850000000E+01               0
GRID*               6525               04.4000000000E+011.4250000000E+01+
*       -1.850000000E+01               0
GRID*               6526               04.5000000000E+011.3232142857E+01+
*       -1.850000000E+01               0
GRID*               6527               04.4000000000E+011.2214285714E+01+
*       -1.850000000E+01               0
GRID*               6528               04.5000000000E+011.1196428571E+01+
*       -1.850000000E+01               0
GRID*               6529               04.4000000000E+011.0178571429E+01+
*       -1.850000000E+01               0
GRID*               6530               04.5000000000E+019.1607142857E+00+
*       -1.850000000E+01               0
GRID*               6531               04.4000000000E+018.1428571429E+00+
*       -1.850000000E+01               0
GRID*               6532               04.5000000000E+017.1250000000E+00+
*       -1.850000000E+01               0
GRID*               6533               04.4000000000E+016.1071428571E+00+
*       -1.850000000E+01               0
GRID*               6534               04.5000000000E+015.0892857143E+00+
*       -1.850000000E+01               0
GRID*               6535               04.4000000000E+014.0714285714E+00+
*       -1.850000000E+01               0
GRID*               6536               04.5000000000E+013.0535714286E+00+
*       -1.850000000E+01               0
GRID*               6537               04.4000000000E+012.0357142857E+00+
*       -1.850000000E+01               0
GRID*               6538               04.6000000000E+012.6464285714E+01+
*       -1.850000000E+01               0
GRID*               6539               04.7000000000E+012.5446428571E+01+
*       -1.850000000E+01               0
GRID*               6540               04.6000000000E+012.4428571429E+01+
*       -1.850000000E+01               0
GRID*               6541               04.7000000000E+012.3410714286E+01+
*       -1.850000000E+01               0
GRID*               6542               04.6000000000E+012.2392857143E+01+
*       -1.850000000E+01               0
GRID*               6543               04.7000000000E+012.1375000000E+01+
*       -1.850000000E+01               0
GRID*               6544               04.6000000000E+012.0357142857E+01+
*       -1.850000000E+01               0
GRID*               6545               04.7000000000E+011.9339285714E+01+
*       -1.850000000E+01               0
GRID*               6546               04.6000000000E+011.8321428571E+01+
*       -1.850000000E+01               0
GRID*               6547               04.7000000000E+011.7303571429E+01+
*       -1.850000000E+01               0
GRID*               6548               04.6000000000E+011.6285714286E+01+
*       -1.850000000E+01               0
GRID*               6549               04.7000000000E+011.5267857143E+01+
*       -1.850000000E+01               0
GRID*               6550               04.6000000000E+011.4250000000E+01+
*       -1.850000000E+01               0
GRID*               6551               04.7000000000E+011.3232142857E+01+
*       -1.850000000E+01               0
GRID*               6552               04.6000000000E+011.2214285714E+01+
*       -1.850000000E+01               0
GRID*               6553               04.7000000000E+011.1196428571E+01+
*       -1.850000000E+01               0
GRID*               6554               04.6000000000E+011.0178571429E+01+
*       -1.850000000E+01               0
GRID*               6555               04.7000000000E+019.1607142857E+00+
*       -1.850000000E+01               0
GRID*               6556               04.6000000000E+018.1428571429E+00+
*       -1.850000000E+01               0
GRID*               6557               04.7000000000E+017.1250000000E+00+
*       -1.850000000E+01               0
GRID*               6558               04.6000000000E+016.1071428571E+00+
*       -1.850000000E+01               0
GRID*               6559               04.7000000000E+015.0892857143E+00+
*       -1.850000000E+01               0
GRID*               6560               04.6000000000E+014.0714285714E+00+
*       -1.850000000E+01               0
GRID*               6561               04.7000000000E+013.0535714286E+00+
*       -1.850000000E+01               0
GRID*               6562               04.6000000000E+012.0357142857E+00+
*       -1.850000000E+01               0
GRID*               6563               04.8000000000E+012.6464285714E+01+
*       -1.850000000E+01               0
GRID*               6564               04.9000000000E+012.5446428571E+01+
*       -1.850000000E+01               0
GRID*               6565               04.8000000000E+012.4428571429E+01+
*       -1.850000000E+01               0
GRID*               6566               04.9000000000E+012.3410714286E+01+
*       -1.850000000E+01               0
GRID*               6567               04.8000000000E+012.2392857143E+01+
*       -1.850000000E+01               0
GRID*               6568               04.9000000000E+012.1375000000E+01+
*       -1.850000000E+01               0
GRID*               6569               04.8000000000E+012.0357142857E+01+
*       -1.850000000E+01               0
GRID*               6570               04.9000000000E+011.9339285714E+01+
*       -1.850000000E+01               0
GRID*               6571               04.8000000000E+011.8321428571E+01+
*       -1.850000000E+01               0
GRID*               6572               04.9000000000E+011.7303571429E+01+
*       -1.850000000E+01               0
GRID*               6573               04.8000000000E+011.6285714286E+01+
*       -1.850000000E+01               0
GRID*               6574               04.9000000000E+011.5267857143E+01+
*       -1.850000000E+01               0
GRID*               6575               04.8000000000E+011.4250000000E+01+
*       -1.850000000E+01               0
GRID*               6576               04.9000000000E+011.3232142857E+01+
*       -1.850000000E+01               0
GRID*               6577               04.8000000000E+011.2214285714E+01+
*       -1.850000000E+01               0
GRID*               6578               04.9000000000E+011.1196428571E+01+
*       -1.850000000E+01               0
GRID*               6579               04.8000000000E+011.0178571429E+01+
*       -1.850000000E+01               0
GRID*               6580               04.9000000000E+019.1607142857E+00+
*       -1.850000000E+01               0
GRID*               6581               04.8000000000E+018.1428571429E+00+
*       -1.850000000E+01               0
GRID*               6582               04.9000000000E+017.1250000000E+00+
*       -1.850000000E+01               0
GRID*               6583               04.8000000000E+016.1071428571E+00+
*       -1.850000000E+01               0
GRID*               6584               04.9000000000E+015.0892857143E+00+
*       -1.850000000E+01               0
GRID*               6585               04.8000000000E+014.0714285714E+00+
*       -1.850000000E+01               0
GRID*               6586               04.9000000000E+013.0535714286E+00+
*       -1.850000000E+01               0
GRID*               6587               04.8000000000E+012.0357142857E+00+
*       -1.850000000E+01               0
GRID*               6588               05.0000000000E+012.6464285714E+01+
*       -1.850000000E+01               0
GRID*               6589               05.1000000000E+012.5446428571E+01+
*       -1.850000000E+01               0
GRID*               6590               05.0000000000E+012.4428571429E+01+
*       -1.850000000E+01               0
GRID*               6591               05.1000000000E+012.3410714286E+01+
*       -1.850000000E+01               0
GRID*               6592               05.0000000000E+012.2392857143E+01+
*       -1.850000000E+01               0
GRID*               6593               05.1000000000E+012.1375000000E+01+
*       -1.850000000E+01               0
GRID*               6594               05.0000000000E+012.0357142857E+01+
*       -1.850000000E+01               0
GRID*               6595               05.1000000000E+011.9339285714E+01+
*       -1.850000000E+01               0
GRID*               6596               05.0000000000E+011.8321428571E+01+
*       -1.850000000E+01               0
GRID*               6597               05.1000000000E+011.7303571429E+01+
*       -1.850000000E+01               0
GRID*               6598               05.0000000000E+011.6285714286E+01+
*       -1.850000000E+01               0
GRID*               6599               05.1000000000E+011.5267857143E+01+
*       -1.850000000E+01               0
GRID*               6600               05.0000000000E+011.4250000000E+01+
*       -1.850000000E+01               0
GRID*               6601               05.1000000000E+011.3232142857E+01+
*       -1.850000000E+01               0
GRID*               6602               05.0000000000E+011.2214285714E+01+
*       -1.850000000E+01               0
GRID*               6603               05.1000000000E+011.1196428571E+01+
*       -1.850000000E+01               0
GRID*               6604               05.0000000000E+011.0178571429E+01+
*       -1.850000000E+01               0
GRID*               6605               05.1000000000E+019.1607142857E+00+
*       -1.850000000E+01               0
GRID*               6606               05.0000000000E+018.1428571429E+00+
*       -1.850000000E+01               0
GRID*               6607               05.1000000000E+017.1250000000E+00+
*       -1.850000000E+01               0
GRID*               6608               05.0000000000E+016.1071428571E+00+
*       -1.850000000E+01               0
GRID*               6609               05.1000000000E+015.0892857143E+00+
*       -1.850000000E+01               0
GRID*               6610               05.0000000000E+014.0714285714E+00+
*       -1.850000000E+01               0
GRID*               6611               05.1000000000E+013.0535714286E+00+
*       -1.850000000E+01               0
GRID*               6612               05.0000000000E+012.0357142857E+00+
*       -1.850000000E+01               0
GRID*               6613               05.2000000000E+012.6464285714E+01+
*       -1.850000000E+01               0
GRID*               6614               05.3000000000E+012.5446428571E+01+
*       -1.850000000E+01               0
GRID*               6615               05.2000000000E+012.4428571429E+01+
*       -1.850000000E+01               0
GRID*               6616               05.3000000000E+012.3410714286E+01+
*       -1.850000000E+01               0
GRID*               6617               05.2000000000E+012.2392857143E+01+
*       -1.850000000E+01               0
GRID*               6618               05.3000000000E+012.1375000000E+01+
*       -1.850000000E+01               0
GRID*               6619               05.2000000000E+012.0357142857E+01+
*       -1.850000000E+01               0
GRID*               6620               05.3000000000E+011.9339285714E+01+
*       -1.850000000E+01               0
GRID*               6621               05.2000000000E+011.8321428571E+01+
*       -1.850000000E+01               0
GRID*               6622               05.3000000000E+011.7303571429E+01+
*       -1.850000000E+01               0
GRID*               6623               05.2000000000E+011.6285714286E+01+
*       -1.850000000E+01               0
GRID*               6624               05.3000000000E+011.5267857143E+01+
*       -1.850000000E+01               0
GRID*               6625               05.2000000000E+011.4250000000E+01+
*       -1.850000000E+01               0
GRID*               6626               05.3000000000E+011.3232142857E+01+
*       -1.850000000E+01               0
GRID*               6627               05.2000000000E+011.2214285714E+01+
*       -1.850000000E+01               0
GRID*               6628               05.3000000000E+011.1196428571E+01+
*       -1.850000000E+01               0
GRID*               6629               05.2000000000E+011.0178571429E+01+
*       -1.850000000E+01               0
GRID*               6630               05.3000000000E+019.1607142857E+00+
*       -1.850000000E+01               0
GRID*               6631               05.2000000000E+018.1428571429E+00+
*       -1.850000000E+01               0
GRID*               6632               05.3000000000E+017.1250000000E+00+
*       -1.850000000E+01               0
GRID*               6633               05.2000000000E+016.1071428571E+00+
*       -1.850000000E+01               0
GRID*               6634               05.3000000000E+015.0892857143E+00+
*       -1.850000000E+01               0
GRID*               6635               05.2000000000E+014.0714285714E+00+
*       -1.850000000E+01               0
GRID*               6636               05.3000000000E+013.0535714286E+00+
*       -1.850000000E+01               0
GRID*               6637               05.2000000000E+012.0357142857E+00+
*       -1.850000000E+01               0
GRID*               6638               05.4000000000E+012.6464285714E+01+
*       -1.850000000E+01               0
GRID*               6639               05.5000000000E+012.5446428571E+01+
*       -1.850000000E+01               0
GRID*               6640               05.4000000000E+012.4428571429E+01+
*       -1.850000000E+01               0
GRID*               6641               05.5000000000E+012.3410714286E+01+
*       -1.850000000E+01               0
GRID*               6642               05.4000000000E+012.2392857143E+01+
*       -1.850000000E+01               0
GRID*               6643               05.5000000000E+012.1375000000E+01+
*       -1.850000000E+01               0
GRID*               6644               05.4000000000E+012.0357142857E+01+
*       -1.850000000E+01               0
GRID*               6645               05.5000000000E+011.9339285714E+01+
*       -1.850000000E+01               0
GRID*               6646               05.4000000000E+011.8321428571E+01+
*       -1.850000000E+01               0
GRID*               6647               05.5000000000E+011.7303571429E+01+
*       -1.850000000E+01               0
GRID*               6648               05.4000000000E+011.6285714286E+01+
*       -1.850000000E+01               0
GRID*               6649               05.5000000000E+011.5267857143E+01+
*       -1.850000000E+01               0
GRID*               6650               05.4000000000E+011.4250000000E+01+
*       -1.850000000E+01               0
GRID*               6651               05.5000000000E+011.3232142857E+01+
*       -1.850000000E+01               0
GRID*               6652               05.4000000000E+011.2214285714E+01+
*       -1.850000000E+01               0
GRID*               6653               05.5000000000E+011.1196428571E+01+
*       -1.850000000E+01               0
GRID*               6654               05.4000000000E+011.0178571429E+01+
*       -1.850000000E+01               0
GRID*               6655               05.5000000000E+019.1607142857E+00+
*       -1.850000000E+01               0
GRID*               6656               05.4000000000E+018.1428571429E+00+
*       -1.850000000E+01               0
GRID*               6657               05.5000000000E+017.1250000000E+00+
*       -1.850000000E+01               0
GRID*               6658               05.4000000000E+016.1071428571E+00+
*       -1.850000000E+01               0
GRID*               6659               05.5000000000E+015.0892857143E+00+
*       -1.850000000E+01               0
GRID*               6660               05.4000000000E+014.0714285714E+00+
*       -1.850000000E+01               0
GRID*               6661               05.5000000000E+013.0535714286E+00+
*       -1.850000000E+01               0
GRID*               6662               05.4000000000E+012.0357142857E+00+
*       -1.850000000E+01               0
GRID*               6663               05.6000000000E+012.6464285714E+01+
*       -1.850000000E+01               0
GRID*               6664               05.7000000000E+012.5446428571E+01+
*       -1.850000000E+01               0
GRID*               6665               05.6000000000E+012.4428571429E+01+
*       -1.850000000E+01               0
GRID*               6666               05.7000000000E+012.3410714286E+01+
*       -1.850000000E+01               0
GRID*               6667               05.6000000000E+012.2392857143E+01+
*       -1.850000000E+01               0
GRID*               6668               05.7000000000E+012.1375000000E+01+
*       -1.850000000E+01               0
GRID*               6669               05.6000000000E+012.0357142857E+01+
*       -1.850000000E+01               0
GRID*               6670               05.7000000000E+011.9339285714E+01+
*       -1.850000000E+01               0
GRID*               6671               05.6000000000E+011.8321428571E+01+
*       -1.850000000E+01               0
GRID*               6672               05.7000000000E+011.7303571429E+01+
*       -1.850000000E+01               0
GRID*               6673               05.6000000000E+011.6285714286E+01+
*       -1.850000000E+01               0
GRID*               6674               05.7000000000E+011.5267857143E+01+
*       -1.850000000E+01               0
GRID*               6675               05.6000000000E+011.4250000000E+01+
*       -1.850000000E+01               0
GRID*               6676               05.7000000000E+011.3232142857E+01+
*       -1.850000000E+01               0
GRID*               6677               05.6000000000E+011.2214285714E+01+
*       -1.850000000E+01               0
GRID*               6678               05.7000000000E+011.1196428571E+01+
*       -1.850000000E+01               0
GRID*               6679               05.6000000000E+011.0178571429E+01+
*       -1.850000000E+01               0
GRID*               6680               05.7000000000E+019.1607142857E+00+
*       -1.850000000E+01               0
GRID*               6681               05.6000000000E+018.1428571429E+00+
*       -1.850000000E+01               0
GRID*               6682               05.7000000000E+017.1250000000E+00+
*       -1.850000000E+01               0
GRID*               6683               05.6000000000E+016.1071428571E+00+
*       -1.850000000E+01               0
GRID*               6684               05.7000000000E+015.0892857143E+00+
*       -1.850000000E+01               0
GRID*               6685               05.6000000000E+014.0714285714E+00+
*       -1.850000000E+01               0
GRID*               6686               05.7000000000E+013.0535714286E+00+
*       -1.850000000E+01               0
GRID*               6687               05.6000000000E+012.0357142857E+00+
*       -1.850000000E+01               0
GRID*               6688               05.8000000000E+012.6464285714E+01+
*       -1.850000000E+01               0
GRID*               6689               05.9000000000E+012.5446428571E+01+
*       -1.850000000E+01               0
GRID*               6690               05.8000000000E+012.4428571429E+01+
*       -1.850000000E+01               0
GRID*               6691               05.9000000000E+012.3410714286E+01+
*       -1.850000000E+01               0
GRID*               6692               05.8000000000E+012.2392857143E+01+
*       -1.850000000E+01               0
GRID*               6693               05.9000000000E+012.1375000000E+01+
*       -1.850000000E+01               0
GRID*               6694               05.8000000000E+012.0357142857E+01+
*       -1.850000000E+01               0
GRID*               6695               05.9000000000E+011.9339285714E+01+
*       -1.850000000E+01               0
GRID*               6696               05.8000000000E+011.8321428571E+01+
*       -1.850000000E+01               0
GRID*               6697               05.9000000000E+011.7303571429E+01+
*       -1.850000000E+01               0
GRID*               6698               05.8000000000E+011.6285714286E+01+
*       -1.850000000E+01               0
GRID*               6699               05.9000000000E+011.5267857143E+01+
*       -1.850000000E+01               0
GRID*               6700               05.8000000000E+011.4250000000E+01+
*       -1.850000000E+01               0
GRID*               6701               05.9000000000E+011.3232142857E+01+
*       -1.850000000E+01               0
GRID*               6702               05.8000000000E+011.2214285714E+01+
*       -1.850000000E+01               0
GRID*               6703               05.9000000000E+011.1196428571E+01+
*       -1.850000000E+01               0
GRID*               6704               05.8000000000E+011.0178571429E+01+
*       -1.850000000E+01               0
GRID*               6705               05.9000000000E+019.1607142857E+00+
*       -1.850000000E+01               0
GRID*               6706               05.8000000000E+018.1428571429E+00+
*       -1.850000000E+01               0
GRID*               6707               05.9000000000E+017.1250000000E+00+
*       -1.850000000E+01               0
GRID*               6708               05.8000000000E+016.1071428571E+00+
*       -1.850000000E+01               0
GRID*               6709               05.9000000000E+015.0892857143E+00+
*       -1.850000000E+01               0
GRID*               6710               05.8000000000E+014.0714285714E+00+
*       -1.850000000E+01               0
GRID*               6711               05.9000000000E+013.0535714286E+00+
*       -1.850000000E+01               0
GRID*               6712               05.8000000000E+012.0357142857E+00+
*       -1.850000000E+01               0
GRID*               6713               06.0000000000E+012.6464285714E+01+
*       -1.850000000E+01               0
GRID*               6714               06.1000000000E+012.5446428571E+01+
*       -1.850000000E+01               0
GRID*               6715               06.0000000000E+012.4428571429E+01+
*       -1.850000000E+01               0
GRID*               6716               06.1000000000E+012.3410714286E+01+
*       -1.850000000E+01               0
GRID*               6717               06.0000000000E+012.2392857143E+01+
*       -1.850000000E+01               0
GRID*               6718               06.1000000000E+012.1375000000E+01+
*       -1.850000000E+01               0
GRID*               6719               06.0000000000E+012.0357142857E+01+
*       -1.850000000E+01               0
GRID*               6720               06.1000000000E+011.9339285714E+01+
*       -1.850000000E+01               0
GRID*               6721               06.0000000000E+011.8321428571E+01+
*       -1.850000000E+01               0
GRID*               6722               06.1000000000E+011.7303571429E+01+
*       -1.850000000E+01               0
GRID*               6723               06.0000000000E+011.6285714286E+01+
*       -1.850000000E+01               0
GRID*               6724               06.1000000000E+011.5267857143E+01+
*       -1.850000000E+01               0
GRID*               6725               06.0000000000E+011.4250000000E+01+
*       -1.850000000E+01               0
GRID*               6726               06.1000000000E+011.3232142857E+01+
*       -1.850000000E+01               0
GRID*               6727               06.0000000000E+011.2214285714E+01+
*       -1.850000000E+01               0
GRID*               6728               06.1000000000E+011.1196428571E+01+
*       -1.850000000E+01               0
GRID*               6729               06.0000000000E+011.0178571429E+01+
*       -1.850000000E+01               0
GRID*               6730               06.1000000000E+019.1607142857E+00+
*       -1.850000000E+01               0
GRID*               6731               06.0000000000E+018.1428571429E+00+
*       -1.850000000E+01               0
GRID*               6732               06.1000000000E+017.1250000000E+00+
*       -1.850000000E+01               0
GRID*               6733               06.0000000000E+016.1071428571E+00+
*       -1.850000000E+01               0
GRID*               6734               06.1000000000E+015.0892857143E+00+
*       -1.850000000E+01               0
GRID*               6735               06.0000000000E+014.0714285714E+00+
*       -1.850000000E+01               0
GRID*               6736               06.1000000000E+013.0535714286E+00+
*       -1.850000000E+01               0
GRID*               6737               06.0000000000E+012.0357142857E+00+
*       -1.850000000E+01               0
GRID*               6738               06.2000000000E+012.6464285714E+01+
*       -1.850000000E+01               0
GRID*               6739               06.3000000000E+012.5446428571E+01+
*       -1.850000000E+01               0
GRID*               6740               06.2000000000E+012.4428571429E+01+
*       -1.850000000E+01               0
GRID*               6741               06.3000000000E+012.3410714286E+01+
*       -1.850000000E+01               0
GRID*               6742               06.2000000000E+012.2392857143E+01+
*       -1.850000000E+01               0
GRID*               6743               06.3000000000E+012.1375000000E+01+
*       -1.850000000E+01               0
GRID*               6744               06.2000000000E+012.0357142857E+01+
*       -1.850000000E+01               0
GRID*               6745               06.3000000000E+011.9339285714E+01+
*       -1.850000000E+01               0
GRID*               6746               06.2000000000E+011.8321428571E+01+
*       -1.850000000E+01               0
GRID*               6747               06.3000000000E+011.7303571429E+01+
*       -1.850000000E+01               0
GRID*               6748               06.2000000000E+011.6285714286E+01+
*       -1.850000000E+01               0
GRID*               6749               06.3000000000E+011.5267857143E+01+
*       -1.850000000E+01               0
GRID*               6750               06.2000000000E+011.4250000000E+01+
*       -1.850000000E+01               0
GRID*               6751               06.3000000000E+011.3232142857E+01+
*       -1.850000000E+01               0
GRID*               6752               06.2000000000E+011.2214285714E+01+
*       -1.850000000E+01               0
GRID*               6753               06.3000000000E+011.1196428571E+01+
*       -1.850000000E+01               0
GRID*               6754               06.2000000000E+011.0178571429E+01+
*       -1.850000000E+01               0
GRID*               6755               06.3000000000E+019.1607142857E+00+
*       -1.850000000E+01               0
GRID*               6756               06.2000000000E+018.1428571429E+00+
*       -1.850000000E+01               0
GRID*               6757               06.3000000000E+017.1250000000E+00+
*       -1.850000000E+01               0
GRID*               6758               06.2000000000E+016.1071428571E+00+
*       -1.850000000E+01               0
GRID*               6759               06.3000000000E+015.0892857143E+00+
*       -1.850000000E+01               0
GRID*               6760               06.2000000000E+014.0714285714E+00+
*       -1.850000000E+01               0
GRID*               6761               06.3000000000E+013.0535714286E+00+
*       -1.850000000E+01               0
GRID*               6762               06.2000000000E+012.0357142857E+00+
*       -1.850000000E+01               0
GRID*               6763               06.4000000000E+012.6464285714E+01+
*       -1.850000000E+01               0
GRID*               6764               06.5000000000E+012.5446428571E+01+
*       -1.850000000E+01               0
GRID*               6765               06.4000000000E+012.4428571429E+01+
*       -1.850000000E+01               0
GRID*               6766               06.5000000000E+012.3410714286E+01+
*       -1.850000000E+01               0
GRID*               6767               06.4000000000E+012.2392857143E+01+
*       -1.850000000E+01               0
GRID*               6768               06.5000000000E+012.1375000000E+01+
*       -1.850000000E+01               0
GRID*               6769               06.4000000000E+012.0357142857E+01+
*       -1.850000000E+01               0
GRID*               6770               06.5000000000E+011.9339285714E+01+
*       -1.850000000E+01               0
GRID*               6771               06.4000000000E+011.8321428571E+01+
*       -1.850000000E+01               0
GRID*               6772               06.5000000000E+011.7303571429E+01+
*       -1.850000000E+01               0
GRID*               6773               06.4000000000E+011.6285714286E+01+
*       -1.850000000E+01               0
GRID*               6774               06.5000000000E+011.5267857143E+01+
*       -1.850000000E+01               0
GRID*               6775               06.4000000000E+011.4250000000E+01+
*       -1.850000000E+01               0
GRID*               6776               06.5000000000E+011.3232142857E+01+
*       -1.850000000E+01               0
GRID*               6777               06.4000000000E+011.2214285714E+01+
*       -1.850000000E+01               0
GRID*               6778               06.5000000000E+011.1196428571E+01+
*       -1.850000000E+01               0
GRID*               6779               06.4000000000E+011.0178571429E+01+
*       -1.850000000E+01               0
GRID*               6780               06.5000000000E+019.1607142857E+00+
*       -1.850000000E+01               0
GRID*               6781               06.4000000000E+018.1428571429E+00+
*       -1.850000000E+01               0
GRID*               6782               06.5000000000E+017.1250000000E+00+
*       -1.850000000E+01               0
GRID*               6783               06.4000000000E+016.1071428571E+00+
*       -1.850000000E+01               0
GRID*               6784               06.5000000000E+015.0892857143E+00+
*       -1.850000000E+01               0
GRID*               6785               06.4000000000E+014.0714285714E+00+
*       -1.850000000E+01               0
GRID*               6786               06.5000000000E+013.0535714286E+00+
*       -1.850000000E+01               0
GRID*               6787               06.4000000000E+012.0357142857E+00+
*       -1.850000000E+01               0
GRID*               6788               06.6000000000E+012.6464285714E+01+
*       -1.850000000E+01               0
GRID*               6789               06.7000000000E+012.5446428571E+01+
*       -1.850000000E+01               0
GRID*               6790               06.6000000000E+012.4428571429E+01+
*       -1.850000000E+01               0
GRID*               6791               06.7000000000E+012.3410714286E+01+
*       -1.850000000E+01               0
GRID*               6792               06.6000000000E+012.2392857143E+01+
*       -1.850000000E+01               0
GRID*               6793               06.7000000000E+012.1375000000E+01+
*       -1.850000000E+01               0
GRID*               6794               06.6000000000E+012.0357142857E+01+
*       -1.850000000E+01               0
GRID*               6795               06.7000000000E+011.9339285714E+01+
*       -1.850000000E+01               0
GRID*               6796               06.6000000000E+011.8321428571E+01+
*       -1.850000000E+01               0
GRID*               6797               06.7000000000E+011.7303571429E+01+
*       -1.850000000E+01               0
GRID*               6798               06.6000000000E+011.6285714286E+01+
*       -1.850000000E+01               0
GRID*               6799               06.7000000000E+011.5267857143E+01+
*       -1.850000000E+01               0
GRID*               6800               06.6000000000E+011.4250000000E+01+
*       -1.850000000E+01               0
GRID*               6801               06.7000000000E+011.3232142857E+01+
*       -1.850000000E+01               0
GRID*               6802               06.6000000000E+011.2214285714E+01+
*       -1.850000000E+01               0
GRID*               6803               06.7000000000E+011.1196428571E+01+
*       -1.850000000E+01               0
GRID*               6804               06.6000000000E+011.0178571429E+01+
*       -1.850000000E+01               0
GRID*               6805               06.7000000000E+019.1607142857E+00+
*       -1.850000000E+01               0
GRID*               6806               06.6000000000E+018.1428571429E+00+
*       -1.850000000E+01               0
GRID*               6807               06.7000000000E+017.1250000000E+00+
*       -1.850000000E+01               0
GRID*               6808               06.6000000000E+016.1071428571E+00+
*       -1.850000000E+01               0
GRID*               6809               06.7000000000E+015.0892857143E+00+
*       -1.850000000E+01               0
GRID*               6810               06.6000000000E+014.0714285714E+00+
*       -1.850000000E+01               0
GRID*               6811               06.7000000000E+013.0535714286E+00+
*       -1.850000000E+01               0
GRID*               6812               06.6000000000E+012.0357142857E+00+
*       -1.850000000E+01               0
GRID*               6813               06.8000000000E+012.6464285714E+01+
*       -1.850000000E+01               0
GRID*               6814               06.9000000000E+012.5446428571E+01+
*       -1.850000000E+01               0
GRID*               6815               06.8000000000E+012.4428571429E+01+
*       -1.850000000E+01               0
GRID*               6816               06.9000000000E+012.3410714286E+01+
*       -1.850000000E+01               0
GRID*               6817               06.8000000000E+012.2392857143E+01+
*       -1.850000000E+01               0
GRID*               6818               06.9000000000E+012.1375000000E+01+
*       -1.850000000E+01               0
GRID*               6819               06.8000000000E+012.0357142857E+01+
*       -1.850000000E+01               0
GRID*               6820               06.9000000000E+011.9339285714E+01+
*       -1.850000000E+01               0
GRID*               6821               06.8000000000E+011.8321428571E+01+
*       -1.850000000E+01               0
GRID*               6822               06.9000000000E+011.7303571429E+01+
*       -1.850000000E+01               0
GRID*               6823               06.8000000000E+011.6285714286E+01+
*       -1.850000000E+01               0
GRID*               6824               06.9000000000E+011.5267857143E+01+
*       -1.850000000E+01               0
GRID*               6825               06.8000000000E+011.4250000000E+01+
*       -1.850000000E+01               0
GRID*               6826               06.9000000000E+011.3232142857E+01+
*       -1.850000000E+01               0
GRID*               6827               06.8000000000E+011.2214285714E+01+
*       -1.850000000E+01               0
GRID*               6828               06.9000000000E+011.1196428571E+01+
*       -1.850000000E+01               0
GRID*               6829               06.8000000000E+011.0178571429E+01+
*       -1.850000000E+01               0
GRID*               6830               06.9000000000E+019.1607142857E+00+
*       -1.850000000E+01               0
GRID*               6831               06.8000000000E+018.1428571429E+00+
*       -1.850000000E+01               0
GRID*               6832               06.9000000000E+017.1250000000E+00+
*       -1.850000000E+01               0
GRID*               6833               06.8000000000E+016.1071428571E+00+
*       -1.850000000E+01               0
GRID*               6834               06.9000000000E+015.0892857143E+00+
*       -1.850000000E+01               0
GRID*               6835               06.8000000000E+014.0714285714E+00+
*       -1.850000000E+01               0
GRID*               6836               06.9000000000E+013.0535714286E+00+
*       -1.850000000E+01               0
GRID*               6837               06.8000000000E+012.0357142857E+00+
*       -1.850000000E+01               0
GRID*               6838               07.0000000000E+012.6464285714E+01+
*       -1.850000000E+01               0
GRID*               6839               07.1000000000E+012.5446428571E+01+
*       -1.850000000E+01               0
GRID*               6840               07.0000000000E+012.4428571429E+01+
*       -1.850000000E+01               0
GRID*               6841               07.1000000000E+012.3410714286E+01+
*       -1.850000000E+01               0
GRID*               6842               07.0000000000E+012.2392857143E+01+
*       -1.850000000E+01               0
GRID*               6843               07.1000000000E+012.1375000000E+01+
*       -1.850000000E+01               0
GRID*               6844               07.0000000000E+012.0357142857E+01+
*       -1.850000000E+01               0
GRID*               6845               07.1000000000E+011.9339285714E+01+
*       -1.850000000E+01               0
GRID*               6846               07.0000000000E+011.8321428571E+01+
*       -1.850000000E+01               0
GRID*               6847               07.1000000000E+011.7303571429E+01+
*       -1.850000000E+01               0
GRID*               6848               07.0000000000E+011.6285714286E+01+
*       -1.850000000E+01               0
GRID*               6849               07.1000000000E+011.5267857143E+01+
*       -1.850000000E+01               0
GRID*               6850               07.0000000000E+011.4250000000E+01+
*       -1.850000000E+01               0
GRID*               6851               07.1000000000E+011.3232142857E+01+
*       -1.850000000E+01               0
GRID*               6852               07.0000000000E+011.2214285714E+01+
*       -1.850000000E+01               0
GRID*               6853               07.1000000000E+011.1196428571E+01+
*       -1.850000000E+01               0
GRID*               6854               07.0000000000E+011.0178571429E+01+
*       -1.850000000E+01               0
GRID*               6855               07.1000000000E+019.1607142857E+00+
*       -1.850000000E+01               0
GRID*               6856               07.0000000000E+018.1428571429E+00+
*       -1.850000000E+01               0
GRID*               6857               07.1000000000E+017.1250000000E+00+
*       -1.850000000E+01               0
GRID*               6858               07.0000000000E+016.1071428571E+00+
*       -1.850000000E+01               0
GRID*               6859               07.1000000000E+015.0892857143E+00+
*       -1.850000000E+01               0
GRID*               6860               07.0000000000E+014.0714285714E+00+
*       -1.850000000E+01               0
GRID*               6861               07.1000000000E+013.0535714286E+00+
*       -1.850000000E+01               0
GRID*               6862               07.0000000000E+012.0357142857E+00+
*       -1.850000000E+01               0
GRID*               6863               07.2000000000E+012.6464285714E+01+
*       -1.850000000E+01               0
GRID*               6864               07.3000000000E+012.5446428571E+01+
*       -1.850000000E+01               0
GRID*               6865               07.2000000000E+012.4428571429E+01+
*       -1.850000000E+01               0
GRID*               6866               07.3000000000E+012.3410714286E+01+
*       -1.850000000E+01               0
GRID*               6867               07.2000000000E+012.2392857143E+01+
*       -1.850000000E+01               0
GRID*               6868               07.3000000000E+012.1375000000E+01+
*       -1.850000000E+01               0
GRID*               6869               07.2000000000E+012.0357142857E+01+
*       -1.850000000E+01               0
GRID*               6870               07.3000000000E+011.9339285714E+01+
*       -1.850000000E+01               0
GRID*               6871               07.2000000000E+011.8321428571E+01+
*       -1.850000000E+01               0
GRID*               6872               07.3000000000E+011.7303571429E+01+
*       -1.850000000E+01               0
GRID*               6873               07.2000000000E+011.6285714286E+01+
*       -1.850000000E+01               0
GRID*               6874               07.3000000000E+011.5267857143E+01+
*       -1.850000000E+01               0
GRID*               6875               07.2000000000E+011.4250000000E+01+
*       -1.850000000E+01               0
GRID*               6876               07.3000000000E+011.3232142857E+01+
*       -1.850000000E+01               0
GRID*               6877               07.2000000000E+011.2214285714E+01+
*       -1.850000000E+01               0
GRID*               6878               07.3000000000E+011.1196428571E+01+
*       -1.850000000E+01               0
GRID*               6879               07.2000000000E+011.0178571429E+01+
*       -1.850000000E+01               0
GRID*               6880               07.3000000000E+019.1607142857E+00+
*       -1.850000000E+01               0
GRID*               6881               07.2000000000E+018.1428571429E+00+
*       -1.850000000E+01               0
GRID*               6882               07.3000000000E+017.1250000000E+00+
*       -1.850000000E+01               0
GRID*               6883               07.2000000000E+016.1071428571E+00+
*       -1.850000000E+01               0
GRID*               6884               07.3000000000E+015.0892857143E+00+
*       -1.850000000E+01               0
GRID*               6885               07.2000000000E+014.0714285714E+00+
*       -1.850000000E+01               0
GRID*               6886               07.3000000000E+013.0535714286E+00+
*       -1.850000000E+01               0
GRID*               6887               07.2000000000E+012.0357142857E+00+
*       -1.850000000E+01               0
GRID*               6888               0-7.300000000E+012.7482142857E+01+
*       -1.850000000E+01               0
GRID*               6889               0-7.400000000E+012.6464285714E+01+
*       -1.850000000E+01               0
GRID*               6890               0-7.100000000E+012.7482142857E+01+
*       -1.850000000E+01               0
GRID*               6891               0-6.900000000E+012.7482142857E+01+
*       -1.850000000E+01               0
GRID*               6892               0-6.700000000E+012.7482142857E+01+
*       -1.850000000E+01               0
GRID*               6893               0-6.500000000E+012.7482142857E+01+
*       -1.850000000E+01               0
GRID*               6894               0-6.300000000E+012.7482142857E+01+
*       -1.850000000E+01               0
GRID*               6895               0-6.100000000E+012.7482142857E+01+
*       -1.850000000E+01               0
GRID*               6896               0-5.900000000E+012.7482142857E+01+
*       -1.850000000E+01               0
GRID*               6897               0-5.700000000E+012.7482142857E+01+
*       -1.850000000E+01               0
GRID*               6898               0-5.500000000E+012.7482142857E+01+
*       -1.850000000E+01               0
GRID*               6899               0-5.300000000E+012.7482142857E+01+
*       -1.850000000E+01               0
GRID*               6900               0-5.100000000E+012.7482142857E+01+
*       -1.850000000E+01               0
GRID*               6901               0-4.900000000E+012.7482142857E+01+
*       -1.850000000E+01               0
GRID*               6902               0-4.700000000E+012.7482142857E+01+
*       -1.850000000E+01               0
GRID*               6903               0-4.500000000E+012.7482142857E+01+
*       -1.850000000E+01               0
GRID*               6904               0-4.300000000E+012.7482142857E+01+
*       -1.850000000E+01               0
GRID*               6905               0-4.100000000E+012.7482142857E+01+
*       -1.850000000E+01               0
GRID*               6906               0-3.900000000E+012.7482142857E+01+
*       -1.850000000E+01               0
GRID*               6907               0-3.700000000E+012.7482142857E+01+
*       -1.850000000E+01               0
GRID*               6908               0-3.500000000E+012.7482142857E+01+
*       -1.850000000E+01               0
GRID*               6909               0-3.300000000E+012.7482142857E+01+
*       -1.850000000E+01               0
GRID*               6910               0-3.100000000E+012.7482142857E+01+
*       -1.850000000E+01               0
GRID*               6911               0-2.900000000E+012.7482142857E+01+
*       -1.850000000E+01               0
GRID*               6912               0-2.700000000E+012.7482142857E+01+
*       -1.850000000E+01               0
GRID*               6913               0-2.500000000E+012.7482142857E+01+
*       -1.850000000E+01               0
GRID*               6914               0-2.300000000E+012.7482142857E+01+
*       -1.850000000E+01               0
GRID*               6915               0-2.100000000E+012.7482142857E+01+
*       -1.850000000E+01               0
GRID*               6916               0-1.900000000E+012.7482142857E+01+
*       -1.850000000E+01               0
GRID*               6917               0-1.700000000E+012.7482142857E+01+
*       -1.850000000E+01               0
GRID*               6918               0-1.500000000E+012.7482142857E+01+
*       -1.850000000E+01               0
GRID*               6919               0-1.300000000E+012.7482142857E+01+
*       -1.850000000E+01               0
GRID*               6920               0-1.100000000E+012.7482142857E+01+
*       -1.850000000E+01               0
GRID*               6921               0-9.000000000E+002.7482142857E+01+
*       -1.850000000E+01               0
GRID*               6922               0-7.000000000E+002.7482142857E+01+
*       -1.850000000E+01               0
GRID*               6923               0-5.000000000E+002.7482142857E+01+
*       -1.850000000E+01               0
GRID*               6924               0-3.000000000E+002.7482142857E+01+
*       -1.850000000E+01               0
GRID*               6925               0-1.000000000E+002.7482142857E+01+
*       -1.850000000E+01               0
GRID*               6926               01.0000000000E+002.7482142857E+01+
*       -1.850000000E+01               0
GRID*               6927               03.0000000000E+002.7482142857E+01+
*       -1.850000000E+01               0
GRID*               6928               05.0000000000E+002.7482142857E+01+
*       -1.850000000E+01               0
GRID*               6929               07.0000000000E+002.7482142857E+01+
*       -1.850000000E+01               0
GRID*               6930               09.0000000000E+002.7482142857E+01+
*       -1.850000000E+01               0
GRID*               6931               01.1000000000E+012.7482142857E+01+
*       -1.850000000E+01               0
GRID*               6932               01.3000000000E+012.7482142857E+01+
*       -1.850000000E+01               0
GRID*               6933               01.5000000000E+012.7482142857E+01+
*       -1.850000000E+01               0
GRID*               6934               01.7000000000E+012.7482142857E+01+
*       -1.850000000E+01               0
GRID*               6935               01.9000000000E+012.7482142857E+01+
*       -1.850000000E+01               0
GRID*               6936               02.1000000000E+012.7482142857E+01+
*       -1.850000000E+01               0
GRID*               6937               02.3000000000E+012.7482142857E+01+
*       -1.850000000E+01               0
GRID*               6938               02.5000000000E+012.7482142857E+01+
*       -1.850000000E+01               0
GRID*               6939               02.7000000000E+012.7482142857E+01+
*       -1.850000000E+01               0
GRID*               6940               02.9000000000E+012.7482142857E+01+
*       -1.850000000E+01               0
GRID*               6941               03.1000000000E+012.7482142857E+01+
*       -1.850000000E+01               0
GRID*               6942               03.3000000000E+012.7482142857E+01+
*       -1.850000000E+01               0
GRID*               6943               03.5000000000E+012.7482142857E+01+
*       -1.850000000E+01               0
GRID*               6944               03.7000000000E+012.7482142857E+01+
*       -1.850000000E+01               0
GRID*               6945               03.9000000000E+012.7482142857E+01+
*       -1.850000000E+01               0
GRID*               6946               04.1000000000E+012.7482142857E+01+
*       -1.850000000E+01               0
GRID*               6947               04.3000000000E+012.7482142857E+01+
*       -1.850000000E+01               0
GRID*               6948               04.5000000000E+012.7482142857E+01+
*       -1.850000000E+01               0
GRID*               6949               04.7000000000E+012.7482142857E+01+
*       -1.850000000E+01               0
GRID*               6950               04.9000000000E+012.7482142857E+01+
*       -1.850000000E+01               0
GRID*               6951               05.1000000000E+012.7482142857E+01+
*       -1.850000000E+01               0
GRID*               6952               05.3000000000E+012.7482142857E+01+
*       -1.850000000E+01               0
GRID*               6953               05.5000000000E+012.7482142857E+01+
*       -1.850000000E+01               0
GRID*               6954               05.7000000000E+012.7482142857E+01+
*       -1.850000000E+01               0
GRID*               6955               05.9000000000E+012.7482142857E+01+
*       -1.850000000E+01               0
GRID*               6956               06.1000000000E+012.7482142857E+01+
*       -1.850000000E+01               0
GRID*               6957               06.3000000000E+012.7482142857E+01+
*       -1.850000000E+01               0
GRID*               6958               06.5000000000E+012.7482142857E+01+
*       -1.850000000E+01               0
GRID*               6959               06.7000000000E+012.7482142857E+01+
*       -1.850000000E+01               0
GRID*               6960               06.9000000000E+012.7482142857E+01+
*       -1.850000000E+01               0
GRID*               6961               07.1000000000E+012.7482142857E+01+
*       -1.850000000E+01               0
GRID*               6962               07.3000000000E+012.7482142857E+01+
*       -1.850000000E+01               0
GRID*               6963               07.4000000000E+012.6464285714E+01+
*       -1.850000000E+01               0
GRID*               6964               07.4000000000E+012.4428571429E+01+
*       -1.850000000E+01               0
GRID*               6965               07.4000000000E+012.2392857143E+01+
*       -1.850000000E+01               0
GRID*               6966               07.4000000000E+012.0357142857E+01+
*       -1.850000000E+01               0
GRID*               6967               07.4000000000E+011.8321428571E+01+
*       -1.850000000E+01               0
GRID*               6968               07.4000000000E+011.6285714286E+01+
*       -1.850000000E+01               0
GRID*               6969               07.4000000000E+011.4250000000E+01+
*       -1.850000000E+01               0
GRID*               6970               07.4000000000E+011.2214285714E+01+
*       -1.850000000E+01               0
GRID*               6971               07.4000000000E+011.0178571429E+01+
*       -1.850000000E+01               0
GRID*               6972               07.4000000000E+018.1428571429E+00+
*       -1.850000000E+01               0
GRID*               6973               07.4000000000E+016.1071428571E+00+
*       -1.850000000E+01               0
GRID*               6974               07.4000000000E+014.0714285714E+00+
*       -1.850000000E+01               0
GRID*               6975               07.4000000000E+012.0357142857E+00+
*       -1.850000000E+01               0
GRID*               6976               07.3000000000E+011.0178571429E+00+
*       -1.850000000E+01               0
GRID*               6977               07.1000000000E+011.0178571429E+00+
*       -1.850000000E+01               0
GRID*               6978               06.9000000000E+011.0178571429E+00+
*       -1.850000000E+01               0
GRID*               6979               06.7000000000E+011.0178571429E+00+
*       -1.850000000E+01               0
GRID*               6980               06.5000000000E+011.0178571429E+00+
*       -1.850000000E+01               0
GRID*               6981               06.3000000000E+011.0178571429E+00+
*       -1.850000000E+01               0
GRID*               6982               06.1000000000E+011.0178571429E+00+
*       -1.850000000E+01               0
GRID*               6983               05.9000000000E+011.0178571429E+00+
*       -1.850000000E+01               0
GRID*               6984               05.7000000000E+011.0178571429E+00+
*       -1.850000000E+01               0
GRID*               6985               05.5000000000E+011.0178571429E+00+
*       -1.850000000E+01               0
GRID*               6986               05.3000000000E+011.0178571429E+00+
*       -1.850000000E+01               0
GRID*               6987               05.1000000000E+011.0178571429E+00+
*       -1.850000000E+01               0
GRID*               6988               04.9000000000E+011.0178571429E+00+
*       -1.850000000E+01               0
GRID*               6989               04.7000000000E+011.0178571429E+00+
*       -1.850000000E+01               0
GRID*               6990               04.5000000000E+011.0178571429E+00+
*       -1.850000000E+01               0
GRID*               6991               04.3000000000E+011.0178571429E+00+
*       -1.850000000E+01               0
GRID*               6992               04.1000000000E+011.0178571429E+00+
*       -1.850000000E+01               0
GRID*               6993               03.9000000000E+011.0178571429E+00+
*       -1.850000000E+01               0
GRID*               6994               03.7000000000E+011.0178571429E+00+
*       -1.850000000E+01               0
GRID*               6995               03.5000000000E+011.0178571429E+00+
*       -1.850000000E+01               0
GRID*               6996               03.3000000000E+011.0178571429E+00+
*       -1.850000000E+01               0
GRID*               6997               03.1000000000E+011.0178571429E+00+
*       -1.850000000E+01               0
GRID*               6998               02.9000000000E+011.0178571429E+00+
*       -1.850000000E+01               0
GRID*               6999               02.7000000000E+011.0178571429E+00+
*       -1.850000000E+01               0
GRID*               7000               02.5000000000E+011.0178571429E+00+
*       -1.850000000E+01               0
GRID*               7001               02.3000000000E+011.0178571429E+00+
*       -1.850000000E+01               0
GRID*               7002               02.1000000000E+011.0178571429E+00+
*       -1.850000000E+01               0
GRID*               7003               01.9000000000E+011.0178571429E+00+
*       -1.850000000E+01               0
GRID*               7004               01.7000000000E+011.0178571429E+00+
*       -1.850000000E+01               0
GRID*               7005               01.5000000000E+011.0178571429E+00+
*       -1.850000000E+01               0
GRID*               7006               01.3000000000E+011.0178571429E+00+
*       -1.850000000E+01               0
GRID*               7007               01.1000000000E+011.0178571429E+00+
*       -1.850000000E+01               0
GRID*               7008               09.0000000000E+001.0178571429E+00+
*       -1.850000000E+01               0
GRID*               7009               07.0000000000E+001.0178571429E+00+
*       -1.850000000E+01               0
GRID*               7010               05.0000000000E+001.0178571429E+00+
*       -1.850000000E+01               0
GRID*               7011               03.0000000000E+001.0178571429E+00+
*       -1.850000000E+01               0
GRID*               7012               01.0000000000E+001.0178571429E+00+
*       -1.850000000E+01               0
GRID*               7013               0-1.000000000E+001.0178571429E+00+
*       -1.850000000E+01               0
GRID*               7014               0-3.000000000E+001.0178571429E+00+
*       -1.850000000E+01               0
GRID*               7015               0-5.000000000E+001.0178571429E+00+
*       -1.850000000E+01               0
GRID*               7016               0-7.000000000E+001.0178571429E+00+
*       -1.850000000E+01               0
GRID*               7017               0-9.000000000E+001.0178571429E+00+
*       -1.850000000E+01               0
GRID*               7018               0-1.100000000E+011.0178571429E+00+
*       -1.850000000E+01               0
GRID*               7019               0-1.300000000E+011.0178571429E+00+
*       -1.850000000E+01               0
GRID*               7020               0-1.500000000E+011.0178571429E+00+
*       -1.850000000E+01               0
GRID*               7021               0-1.700000000E+011.0178571429E+00+
*       -1.850000000E+01               0
GRID*               7022               0-1.900000000E+011.0178571429E+00+
*       -1.850000000E+01               0
GRID*               7023               0-2.100000000E+011.0178571429E+00+
*       -1.850000000E+01               0
GRID*               7024               0-2.300000000E+011.0178571429E+00+
*       -1.850000000E+01               0
GRID*               7025               0-2.500000000E+011.0178571429E+00+
*       -1.850000000E+01               0
GRID*               7026               0-2.700000000E+011.0178571429E+00+
*       -1.850000000E+01               0
GRID*               7027               0-2.900000000E+011.0178571429E+00+
*       -1.850000000E+01               0
GRID*               7028               0-3.100000000E+011.0178571429E+00+
*       -1.850000000E+01               0
GRID*               7029               0-3.300000000E+011.0178571429E+00+
*       -1.850000000E+01               0
GRID*               7030               0-3.500000000E+011.0178571429E+00+
*       -1.850000000E+01               0
GRID*               7031               0-3.700000000E+011.0178571429E+00+
*       -1.850000000E+01               0
GRID*               7032               0-3.900000000E+011.0178571429E+00+
*       -1.850000000E+01               0
GRID*               7033               0-4.100000000E+011.0178571429E+00+
*       -1.850000000E+01               0
GRID*               7034               0-4.300000000E+011.0178571429E+00+
*       -1.850000000E+01               0
GRID*               7035               0-4.500000000E+011.0178571429E+00+
*       -1.850000000E+01               0
GRID*               7036               0-4.700000000E+011.0178571429E+00+
*       -1.850000000E+01               0
GRID*               7037               0-4.900000000E+011.0178571429E+00+
*       -1.850000000E+01               0
GRID*               7038               0-5.100000000E+011.0178571429E+00+
*       -1.850000000E+01               0
GRID*               7039               0-5.300000000E+011.0178571429E+00+
*       -1.850000000E+01               0
GRID*               7040               0-5.500000000E+011.0178571429E+00+
*       -1.850000000E+01               0
GRID*               7041               0-5.700000000E+011.0178571429E+00+
*       -1.850000000E+01               0
GRID*               7042               0-5.900000000E+011.0178571429E+00+
*       -1.850000000E+01               0
GRID*               7043               0-6.100000000E+011.0178571429E+00+
*       -1.850000000E+01               0
GRID*               7044               0-6.300000000E+011.0178571429E+00+
*       -1.850000000E+01               0
GRID*               7045               0-6.500000000E+011.0178571429E+00+
*       -1.850000000E+01               0
GRID*               7046               0-6.700000000E+011.0178571429E+00+
*       -1.850000000E+01               0
GRID*               7047               0-6.900000000E+011.0178571429E+00+
*       -1.850000000E+01               0
GRID*               7048               0-7.100000000E+011.0178571429E+00+
*       -1.850000000E+01               0
GRID*               7049               0-7.300000000E+011.0178571429E+00+
*       -1.850000000E+01               0
GRID*               7050               0-7.400000000E+012.0357142857E+00+
*       -1.850000000E+01               0
GRID*               7051               0-7.400000000E+014.0714285714E+00+
*       -1.850000000E+01               0
GRID*               7052               0-7.400000000E+016.1071428571E+00+
*       -1.850000000E+01               0
GRID*               7053               0-7.400000000E+018.1428571429E+00+
*       -1.850000000E+01               0
GRID*               7054               0-7.400000000E+011.0178571429E+01+
*       -1.850000000E+01               0
GRID*               7055               0-7.400000000E+011.2214285714E+01+
*       -1.850000000E+01               0
GRID*               7056               0-7.400000000E+011.4250000000E+01+
*       -1.850000000E+01               0
GRID*               7057               0-7.400000000E+011.6285714286E+01+
*       -1.850000000E+01               0
GRID*               7058               0-7.400000000E+011.8321428571E+01+
*       -1.850000000E+01               0
GRID*               7059               0-7.400000000E+012.0357142857E+01+
*       -1.850000000E+01               0
GRID*               7060               0-7.400000000E+012.2392857143E+01+
*       -1.850000000E+01               0
GRID*               7061               0-7.400000000E+012.4428571429E+01+
*       -1.850000000E+01               0
GRID*               7062               07.3000000000E+012.6464285714E+01+
*       1.8500000000E+01               0
GRID*               7063               07.3000000000E+012.4428571429E+01+
*       1.8500000000E+01               0
GRID*               7064               07.3000000000E+012.2392857143E+01+
*       1.8500000000E+01               0
GRID*               7065               07.3000000000E+012.0357142857E+01+
*       1.8500000000E+01               0
GRID*               7066               07.3000000000E+011.8321428571E+01+
*       1.8500000000E+01               0
GRID*               7067               07.3000000000E+011.6285714286E+01+
*       1.8500000000E+01               0
GRID*               7068               07.3000000000E+011.4250000000E+01+
*       1.8500000000E+01               0
GRID*               7069               07.3000000000E+011.2214285714E+01+
*       1.8500000000E+01               0
GRID*               7070               07.3000000000E+011.0178571429E+01+
*       1.8500000000E+01               0
GRID*               7071               07.3000000000E+018.1428571429E+00+
*       1.8500000000E+01               0
GRID*               7072               07.3000000000E+016.1071428571E+00+
*       1.8500000000E+01               0
GRID*               7073               07.3000000000E+014.0714285714E+00+
*       1.8500000000E+01               0
GRID*               7074               07.3000000000E+012.0357142857E+00+
*       1.8500000000E+01               0
GRID*               7075               07.1000000000E+012.6464285714E+01+
*       1.8500000000E+01               0
GRID*               7076               07.1000000000E+012.4428571429E+01+
*       1.8500000000E+01               0
GRID*               7077               07.1000000000E+012.2392857143E+01+
*       1.8500000000E+01               0
GRID*               7078               07.1000000000E+012.0357142857E+01+
*       1.8500000000E+01               0
GRID*               7079               07.1000000000E+011.8321428571E+01+
*       1.8500000000E+01               0
GRID*               7080               07.1000000000E+011.6285714286E+01+
*       1.8500000000E+01               0
GRID*               7081               07.1000000000E+011.4250000000E+01+
*       1.8500000000E+01               0
GRID*               7082               07.1000000000E+011.2214285714E+01+
*       1.8500000000E+01               0
GRID*               7083               07.1000000000E+011.0178571429E+01+
*       1.8500000000E+01               0
GRID*               7084               07.1000000000E+018.1428571429E+00+
*       1.8500000000E+01               0
GRID*               7085               07.1000000000E+016.1071428571E+00+
*       1.8500000000E+01               0
GRID*               7086               07.1000000000E+014.0714285714E+00+
*       1.8500000000E+01               0
GRID*               7087               07.1000000000E+012.0357142857E+00+
*       1.8500000000E+01               0
GRID*               7088               06.9000000000E+012.6464285714E+01+
*       1.8500000000E+01               0
GRID*               7089               06.9000000000E+012.4428571429E+01+
*       1.8500000000E+01               0
GRID*               7090               06.9000000000E+012.2392857143E+01+
*       1.8500000000E+01               0
GRID*               7091               06.9000000000E+012.0357142857E+01+
*       1.8500000000E+01               0
GRID*               7092               06.9000000000E+011.8321428571E+01+
*       1.8500000000E+01               0
GRID*               7093               06.9000000000E+011.6285714286E+01+
*       1.8500000000E+01               0
GRID*               7094               06.9000000000E+011.4250000000E+01+
*       1.8500000000E+01               0
GRID*               7095               06.9000000000E+011.2214285714E+01+
*       1.8500000000E+01               0
GRID*               7096               06.9000000000E+011.0178571429E+01+
*       1.8500000000E+01               0
GRID*               7097               06.9000000000E+018.1428571429E+00+
*       1.8500000000E+01               0
GRID*               7098               06.9000000000E+016.1071428571E+00+
*       1.8500000000E+01               0
GRID*               7099               06.9000000000E+014.0714285714E+00+
*       1.8500000000E+01               0
GRID*               7100               06.9000000000E+012.0357142857E+00+
*       1.8500000000E+01               0
GRID*               7101               06.7000000000E+012.6464285714E+01+
*       1.8500000000E+01               0
GRID*               7102               06.7000000000E+012.4428571429E+01+
*       1.8500000000E+01               0
GRID*               7103               06.7000000000E+012.2392857143E+01+
*       1.8500000000E+01               0
GRID*               7104               06.7000000000E+012.0357142857E+01+
*       1.8500000000E+01               0
GRID*               7105               06.7000000000E+011.8321428571E+01+
*       1.8500000000E+01               0
GRID*               7106               06.7000000000E+011.6285714286E+01+
*       1.8500000000E+01               0
GRID*               7107               06.7000000000E+011.4250000000E+01+
*       1.8500000000E+01               0
GRID*               7108               06.7000000000E+011.2214285714E+01+
*       1.8500000000E+01               0
GRID*               7109               06.7000000000E+011.0178571429E+01+
*       1.8500000000E+01               0
GRID*               7110               06.7000000000E+018.1428571429E+00+
*       1.8500000000E+01               0
GRID*               7111               06.7000000000E+016.1071428571E+00+
*       1.8500000000E+01               0
GRID*               7112               06.7000000000E+014.0714285714E+00+
*       1.8500000000E+01               0
GRID*               7113               06.7000000000E+012.0357142857E+00+
*       1.8500000000E+01               0
GRID*               7114               06.5000000000E+012.6464285714E+01+
*       1.8500000000E+01               0
GRID*               7115               06.5000000000E+012.4428571429E+01+
*       1.8500000000E+01               0
GRID*               7116               06.5000000000E+012.2392857143E+01+
*       1.8500000000E+01               0
GRID*               7117               06.5000000000E+012.0357142857E+01+
*       1.8500000000E+01               0
GRID*               7118               06.5000000000E+011.8321428571E+01+
*       1.8500000000E+01               0
GRID*               7119               06.5000000000E+011.6285714286E+01+
*       1.8500000000E+01               0
GRID*               7120               06.5000000000E+011.4250000000E+01+
*       1.8500000000E+01               0
GRID*               7121               06.5000000000E+011.2214285714E+01+
*       1.8500000000E+01               0
GRID*               7122               06.5000000000E+011.0178571429E+01+
*       1.8500000000E+01               0
GRID*               7123               06.5000000000E+018.1428571429E+00+
*       1.8500000000E+01               0
GRID*               7124               06.5000000000E+016.1071428571E+00+
*       1.8500000000E+01               0
GRID*               7125               06.5000000000E+014.0714285714E+00+
*       1.8500000000E+01               0
GRID*               7126               06.5000000000E+012.0357142857E+00+
*       1.8500000000E+01               0
GRID*               7127               06.3000000000E+012.6464285714E+01+
*       1.8500000000E+01               0
GRID*               7128               06.3000000000E+012.4428571429E+01+
*       1.8500000000E+01               0
GRID*               7129               06.3000000000E+012.2392857143E+01+
*       1.8500000000E+01               0
GRID*               7130               06.3000000000E+012.0357142857E+01+
*       1.8500000000E+01               0
GRID*               7131               06.3000000000E+011.8321428571E+01+
*       1.8500000000E+01               0
GRID*               7132               06.3000000000E+011.6285714286E+01+
*       1.8500000000E+01               0
GRID*               7133               06.3000000000E+011.4250000000E+01+
*       1.8500000000E+01               0
GRID*               7134               06.3000000000E+011.2214285714E+01+
*       1.8500000000E+01               0
GRID*               7135               06.3000000000E+011.0178571429E+01+
*       1.8500000000E+01               0
GRID*               7136               06.3000000000E+018.1428571429E+00+
*       1.8500000000E+01               0
GRID*               7137               06.3000000000E+016.1071428571E+00+
*       1.8500000000E+01               0
GRID*               7138               06.3000000000E+014.0714285714E+00+
*       1.8500000000E+01               0
GRID*               7139               06.3000000000E+012.0357142857E+00+
*       1.8500000000E+01               0
GRID*               7140               06.1000000000E+012.6464285714E+01+
*       1.8500000000E+01               0
GRID*               7141               06.1000000000E+012.4428571429E+01+
*       1.8500000000E+01               0
GRID*               7142               06.1000000000E+012.2392857143E+01+
*       1.8500000000E+01               0
GRID*               7143               06.1000000000E+012.0357142857E+01+
*       1.8500000000E+01               0
GRID*               7144               06.1000000000E+011.8321428571E+01+
*       1.8500000000E+01               0
GRID*               7145               06.1000000000E+011.6285714286E+01+
*       1.8500000000E+01               0
GRID*               7146               06.1000000000E+011.4250000000E+01+
*       1.8500000000E+01               0
GRID*               7147               06.1000000000E+011.2214285714E+01+
*       1.8500000000E+01               0
GRID*               7148               06.1000000000E+011.0178571429E+01+
*       1.8500000000E+01               0
GRID*               7149               06.1000000000E+018.1428571429E+00+
*       1.8500000000E+01               0
GRID*               7150               06.1000000000E+016.1071428571E+00+
*       1.8500000000E+01               0
GRID*               7151               06.1000000000E+014.0714285714E+00+
*       1.8500000000E+01               0
GRID*               7152               06.1000000000E+012.0357142857E+00+
*       1.8500000000E+01               0
GRID*               7153               05.9000000000E+012.6464285714E+01+
*       1.8500000000E+01               0
GRID*               7154               05.9000000000E+012.4428571429E+01+
*       1.8500000000E+01               0
GRID*               7155               05.9000000000E+012.2392857143E+01+
*       1.8500000000E+01               0
GRID*               7156               05.9000000000E+012.0357142857E+01+
*       1.8500000000E+01               0
GRID*               7157               05.9000000000E+011.8321428571E+01+
*       1.8500000000E+01               0
GRID*               7158               05.9000000000E+011.6285714286E+01+
*       1.8500000000E+01               0
GRID*               7159               05.9000000000E+011.4250000000E+01+
*       1.8500000000E+01               0
GRID*               7160               05.9000000000E+011.2214285714E+01+
*       1.8500000000E+01               0
GRID*               7161               05.9000000000E+011.0178571429E+01+
*       1.8500000000E+01               0
GRID*               7162               05.9000000000E+018.1428571429E+00+
*       1.8500000000E+01               0
GRID*               7163               05.9000000000E+016.1071428571E+00+
*       1.8500000000E+01               0
GRID*               7164               05.9000000000E+014.0714285714E+00+
*       1.8500000000E+01               0
GRID*               7165               05.9000000000E+012.0357142857E+00+
*       1.8500000000E+01               0
GRID*               7166               05.7000000000E+012.6464285714E+01+
*       1.8500000000E+01               0
GRID*               7167               05.7000000000E+012.4428571429E+01+
*       1.8500000000E+01               0
GRID*               7168               05.7000000000E+012.2392857143E+01+
*       1.8500000000E+01               0
GRID*               7169               05.7000000000E+012.0357142857E+01+
*       1.8500000000E+01               0
GRID*               7170               05.7000000000E+011.8321428571E+01+
*       1.8500000000E+01               0
GRID*               7171               05.7000000000E+011.6285714286E+01+
*       1.8500000000E+01               0
GRID*               7172               05.7000000000E+011.4250000000E+01+
*       1.8500000000E+01               0
GRID*               7173               05.7000000000E+011.2214285714E+01+
*       1.8500000000E+01               0
GRID*               7174               05.7000000000E+011.0178571429E+01+
*       1.8500000000E+01               0
GRID*               7175               05.7000000000E+018.1428571429E+00+
*       1.8500000000E+01               0
GRID*               7176               05.7000000000E+016.1071428571E+00+
*       1.8500000000E+01               0
GRID*               7177               05.7000000000E+014.0714285714E+00+
*       1.8500000000E+01               0
GRID*               7178               05.7000000000E+012.0357142857E+00+
*       1.8500000000E+01               0
GRID*               7179               05.5000000000E+012.6464285714E+01+
*       1.8500000000E+01               0
GRID*               7180               05.5000000000E+012.4428571429E+01+
*       1.8500000000E+01               0
GRID*               7181               05.5000000000E+012.2392857143E+01+
*       1.8500000000E+01               0
GRID*               7182               05.5000000000E+012.0357142857E+01+
*       1.8500000000E+01               0
GRID*               7183               05.5000000000E+011.8321428571E+01+
*       1.8500000000E+01               0
GRID*               7184               05.5000000000E+011.6285714286E+01+
*       1.8500000000E+01               0
GRID*               7185               05.5000000000E+011.4250000000E+01+
*       1.8500000000E+01               0
GRID*               7186               05.5000000000E+011.2214285714E+01+
*       1.8500000000E+01               0
GRID*               7187               05.5000000000E+011.0178571429E+01+
*       1.8500000000E+01               0
GRID*               7188               05.5000000000E+018.1428571429E+00+
*       1.8500000000E+01               0
GRID*               7189               05.5000000000E+016.1071428571E+00+
*       1.8500000000E+01               0
GRID*               7190               05.5000000000E+014.0714285714E+00+
*       1.8500000000E+01               0
GRID*               7191               05.5000000000E+012.0357142857E+00+
*       1.8500000000E+01               0
GRID*               7192               05.3000000000E+012.6464285714E+01+
*       1.8500000000E+01               0
GRID*               7193               05.3000000000E+012.4428571429E+01+
*       1.8500000000E+01               0
GRID*               7194               05.3000000000E+012.2392857143E+01+
*       1.8500000000E+01               0
GRID*               7195               05.3000000000E+012.0357142857E+01+
*       1.8500000000E+01               0
GRID*               7196               05.3000000000E+011.8321428571E+01+
*       1.8500000000E+01               0
GRID*               7197               05.3000000000E+011.6285714286E+01+
*       1.8500000000E+01               0
GRID*               7198               05.3000000000E+011.4250000000E+01+
*       1.8500000000E+01               0
GRID*               7199               05.3000000000E+011.2214285714E+01+
*       1.8500000000E+01               0
GRID*               7200               05.3000000000E+011.0178571429E+01+
*       1.8500000000E+01               0
GRID*               7201               05.3000000000E+018.1428571429E+00+
*       1.8500000000E+01               0
GRID*               7202               05.3000000000E+016.1071428571E+00+
*       1.8500000000E+01               0
GRID*               7203               05.3000000000E+014.0714285714E+00+
*       1.8500000000E+01               0
GRID*               7204               05.3000000000E+012.0357142857E+00+
*       1.8500000000E+01               0
GRID*               7205               05.1000000000E+012.6464285714E+01+
*       1.8500000000E+01               0
GRID*               7206               05.1000000000E+012.4428571429E+01+
*       1.8500000000E+01               0
GRID*               7207               05.1000000000E+012.2392857143E+01+
*       1.8500000000E+01               0
GRID*               7208               05.1000000000E+012.0357142857E+01+
*       1.8500000000E+01               0
GRID*               7209               05.1000000000E+011.8321428571E+01+
*       1.8500000000E+01               0
GRID*               7210               05.1000000000E+011.6285714286E+01+
*       1.8500000000E+01               0
GRID*               7211               05.1000000000E+011.4250000000E+01+
*       1.8500000000E+01               0
GRID*               7212               05.1000000000E+011.2214285714E+01+
*       1.8500000000E+01               0
GRID*               7213               05.1000000000E+011.0178571429E+01+
*       1.8500000000E+01               0
GRID*               7214               05.1000000000E+018.1428571429E+00+
*       1.8500000000E+01               0
GRID*               7215               05.1000000000E+016.1071428571E+00+
*       1.8500000000E+01               0
GRID*               7216               05.1000000000E+014.0714285714E+00+
*       1.8500000000E+01               0
GRID*               7217               05.1000000000E+012.0357142857E+00+
*       1.8500000000E+01               0
GRID*               7218               04.9000000000E+012.6464285714E+01+
*       1.8500000000E+01               0
GRID*               7219               04.9000000000E+012.4428571429E+01+
*       1.8500000000E+01               0
GRID*               7220               04.9000000000E+012.2392857143E+01+
*       1.8500000000E+01               0
GRID*               7221               04.9000000000E+012.0357142857E+01+
*       1.8500000000E+01               0
GRID*               7222               04.9000000000E+011.8321428571E+01+
*       1.8500000000E+01               0
GRID*               7223               04.9000000000E+011.6285714286E+01+
*       1.8500000000E+01               0
GRID*               7224               04.9000000000E+011.4250000000E+01+
*       1.8500000000E+01               0
GRID*               7225               04.9000000000E+011.2214285714E+01+
*       1.8500000000E+01               0
GRID*               7226               04.9000000000E+011.0178571429E+01+
*       1.8500000000E+01               0
GRID*               7227               04.9000000000E+018.1428571429E+00+
*       1.8500000000E+01               0
GRID*               7228               04.9000000000E+016.1071428571E+00+
*       1.8500000000E+01               0
GRID*               7229               04.9000000000E+014.0714285714E+00+
*       1.8500000000E+01               0
GRID*               7230               04.9000000000E+012.0357142857E+00+
*       1.8500000000E+01               0
GRID*               7231               04.7000000000E+012.6464285714E+01+
*       1.8500000000E+01               0
GRID*               7232               04.7000000000E+012.4428571429E+01+
*       1.8500000000E+01               0
GRID*               7233               04.7000000000E+012.2392857143E+01+
*       1.8500000000E+01               0
GRID*               7234               04.7000000000E+012.0357142857E+01+
*       1.8500000000E+01               0
GRID*               7235               04.7000000000E+011.8321428571E+01+
*       1.8500000000E+01               0
GRID*               7236               04.7000000000E+011.6285714286E+01+
*       1.8500000000E+01               0
GRID*               7237               04.7000000000E+011.4250000000E+01+
*       1.8500000000E+01               0
GRID*               7238               04.7000000000E+011.2214285714E+01+
*       1.8500000000E+01               0
GRID*               7239               04.7000000000E+011.0178571429E+01+
*       1.8500000000E+01               0
GRID*               7240               04.7000000000E+018.1428571429E+00+
*       1.8500000000E+01               0
GRID*               7241               04.7000000000E+016.1071428571E+00+
*       1.8500000000E+01               0
GRID*               7242               04.7000000000E+014.0714285714E+00+
*       1.8500000000E+01               0
GRID*               7243               04.7000000000E+012.0357142857E+00+
*       1.8500000000E+01               0
GRID*               7244               04.5000000000E+012.6464285714E+01+
*       1.8500000000E+01               0
GRID*               7245               04.5000000000E+012.4428571429E+01+
*       1.8500000000E+01               0
GRID*               7246               04.5000000000E+012.2392857143E+01+
*       1.8500000000E+01               0
GRID*               7247               04.5000000000E+012.0357142857E+01+
*       1.8500000000E+01               0
GRID*               7248               04.5000000000E+011.8321428571E+01+
*       1.8500000000E+01               0
GRID*               7249               04.5000000000E+011.6285714286E+01+
*       1.8500000000E+01               0
GRID*               7250               04.5000000000E+011.4250000000E+01+
*       1.8500000000E+01               0
GRID*               7251               04.5000000000E+011.2214285714E+01+
*       1.8500000000E+01               0
GRID*               7252               04.5000000000E+011.0178571429E+01+
*       1.8500000000E+01               0
GRID*               7253               04.5000000000E+018.1428571429E+00+
*       1.8500000000E+01               0
GRID*               7254               04.5000000000E+016.1071428571E+00+
*       1.8500000000E+01               0
GRID*               7255               04.5000000000E+014.0714285714E+00+
*       1.8500000000E+01               0
GRID*               7256               04.5000000000E+012.0357142857E+00+
*       1.8500000000E+01               0
GRID*               7257               04.3000000000E+012.6464285714E+01+
*       1.8500000000E+01               0
GRID*               7258               04.3000000000E+012.4428571429E+01+
*       1.8500000000E+01               0
GRID*               7259               04.3000000000E+012.2392857143E+01+
*       1.8500000000E+01               0
GRID*               7260               04.3000000000E+012.0357142857E+01+
*       1.8500000000E+01               0
GRID*               7261               04.3000000000E+011.8321428571E+01+
*       1.8500000000E+01               0
GRID*               7262               04.3000000000E+011.6285714286E+01+
*       1.8500000000E+01               0
GRID*               7263               04.3000000000E+011.4250000000E+01+
*       1.8500000000E+01               0
GRID*               7264               04.3000000000E+011.2214285714E+01+
*       1.8500000000E+01               0
GRID*               7265               04.3000000000E+011.0178571429E+01+
*       1.8500000000E+01               0
GRID*               7266               04.3000000000E+018.1428571429E+00+
*       1.8500000000E+01               0
GRID*               7267               04.3000000000E+016.1071428571E+00+
*       1.8500000000E+01               0
GRID*               7268               04.3000000000E+014.0714285714E+00+
*       1.8500000000E+01               0
GRID*               7269               04.3000000000E+012.0357142857E+00+
*       1.8500000000E+01               0
GRID*               7270               04.1000000000E+012.6464285714E+01+
*       1.8500000000E+01               0
GRID*               7271               04.1000000000E+012.4428571429E+01+
*       1.8500000000E+01               0
GRID*               7272               04.1000000000E+012.2392857143E+01+
*       1.8500000000E+01               0
GRID*               7273               04.1000000000E+012.0357142857E+01+
*       1.8500000000E+01               0
GRID*               7274               04.1000000000E+011.8321428571E+01+
*       1.8500000000E+01               0
GRID*               7275               04.1000000000E+011.6285714286E+01+
*       1.8500000000E+01               0
GRID*               7276               04.1000000000E+011.4250000000E+01+
*       1.8500000000E+01               0
GRID*               7277               04.1000000000E+011.2214285714E+01+
*       1.8500000000E+01               0
GRID*               7278               04.1000000000E+011.0178571429E+01+
*       1.8500000000E+01               0
GRID*               7279               04.1000000000E+018.1428571429E+00+
*       1.8500000000E+01               0
GRID*               7280               04.1000000000E+016.1071428571E+00+
*       1.8500000000E+01               0
GRID*               7281               04.1000000000E+014.0714285714E+00+
*       1.8500000000E+01               0
GRID*               7282               04.1000000000E+012.0357142857E+00+
*       1.8500000000E+01               0
GRID*               7283               03.9000000000E+012.6464285714E+01+
*       1.8500000000E+01               0
GRID*               7284               03.9000000000E+012.4428571429E+01+
*       1.8500000000E+01               0
GRID*               7285               03.9000000000E+012.2392857143E+01+
*       1.8500000000E+01               0
GRID*               7286               03.9000000000E+012.0357142857E+01+
*       1.8500000000E+01               0
GRID*               7287               03.9000000000E+011.8321428571E+01+
*       1.8500000000E+01               0
GRID*               7288               03.9000000000E+011.6285714286E+01+
*       1.8500000000E+01               0
GRID*               7289               03.9000000000E+011.4250000000E+01+
*       1.8500000000E+01               0
GRID*               7290               03.9000000000E+011.2214285714E+01+
*       1.8500000000E+01               0
GRID*               7291               03.9000000000E+011.0178571429E+01+
*       1.8500000000E+01               0
GRID*               7292               03.9000000000E+018.1428571429E+00+
*       1.8500000000E+01               0
GRID*               7293               03.9000000000E+016.1071428571E+00+
*       1.8500000000E+01               0
GRID*               7294               03.9000000000E+014.0714285714E+00+
*       1.8500000000E+01               0
GRID*               7295               03.9000000000E+012.0357142857E+00+
*       1.8500000000E+01               0
GRID*               7296               03.7000000000E+012.6464285714E+01+
*       1.8500000000E+01               0
GRID*               7297               03.7000000000E+012.4428571429E+01+
*       1.8500000000E+01               0
GRID*               7298               03.7000000000E+012.2392857143E+01+
*       1.8500000000E+01               0
GRID*               7299               03.7000000000E+012.0357142857E+01+
*       1.8500000000E+01               0
GRID*               7300               03.7000000000E+011.8321428571E+01+
*       1.8500000000E+01               0
GRID*               7301               03.7000000000E+011.6285714286E+01+
*       1.8500000000E+01               0
GRID*               7302               03.7000000000E+011.4250000000E+01+
*       1.8500000000E+01               0
GRID*               7303               03.7000000000E+011.2214285714E+01+
*       1.8500000000E+01               0
GRID*               7304               03.7000000000E+011.0178571429E+01+
*       1.8500000000E+01               0
GRID*               7305               03.7000000000E+018.1428571429E+00+
*       1.8500000000E+01               0
GRID*               7306               03.7000000000E+016.1071428571E+00+
*       1.8500000000E+01               0
GRID*               7307               03.7000000000E+014.0714285714E+00+
*       1.8500000000E+01               0
GRID*               7308               03.7000000000E+012.0357142857E+00+
*       1.8500000000E+01               0
GRID*               7309               03.5000000000E+012.6464285714E+01+
*       1.8500000000E+01               0
GRID*               7310               03.5000000000E+012.4428571429E+01+
*       1.8500000000E+01               0
GRID*               7311               03.5000000000E+012.2392857143E+01+
*       1.8500000000E+01               0
GRID*               7312               03.5000000000E+012.0357142857E+01+
*       1.8500000000E+01               0
GRID*               7313               03.5000000000E+011.8321428571E+01+
*       1.8500000000E+01               0
GRID*               7314               03.5000000000E+011.6285714286E+01+
*       1.8500000000E+01               0
GRID*               7315               03.5000000000E+011.4250000000E+01+
*       1.8500000000E+01               0
GRID*               7316               03.5000000000E+011.2214285714E+01+
*       1.8500000000E+01               0
GRID*               7317               03.5000000000E+011.0178571429E+01+
*       1.8500000000E+01               0
GRID*               7318               03.5000000000E+018.1428571429E+00+
*       1.8500000000E+01               0
GRID*               7319               03.5000000000E+016.1071428571E+00+
*       1.8500000000E+01               0
GRID*               7320               03.5000000000E+014.0714285714E+00+
*       1.8500000000E+01               0
GRID*               7321               03.5000000000E+012.0357142857E+00+
*       1.8500000000E+01               0
GRID*               7322               03.3000000000E+012.6464285714E+01+
*       1.8500000000E+01               0
GRID*               7323               03.3000000000E+012.4428571429E+01+
*       1.8500000000E+01               0
GRID*               7324               03.3000000000E+012.2392857143E+01+
*       1.8500000000E+01               0
GRID*               7325               03.3000000000E+012.0357142857E+01+
*       1.8500000000E+01               0
GRID*               7326               03.3000000000E+011.8321428571E+01+
*       1.8500000000E+01               0
GRID*               7327               03.3000000000E+011.6285714286E+01+
*       1.8500000000E+01               0
GRID*               7328               03.3000000000E+011.4250000000E+01+
*       1.8500000000E+01               0
GRID*               7329               03.3000000000E+011.2214285714E+01+
*       1.8500000000E+01               0
GRID*               7330               03.3000000000E+011.0178571429E+01+
*       1.8500000000E+01               0
GRID*               7331               03.3000000000E+018.1428571429E+00+
*       1.8500000000E+01               0
GRID*               7332               03.3000000000E+016.1071428571E+00+
*       1.8500000000E+01               0
GRID*               7333               03.3000000000E+014.0714285714E+00+
*       1.8500000000E+01               0
GRID*               7334               03.3000000000E+012.0357142857E+00+
*       1.8500000000E+01               0
GRID*               7335               03.1000000000E+012.6464285714E+01+
*       1.8500000000E+01               0
GRID*               7336               03.1000000000E+012.4428571429E+01+
*       1.8500000000E+01               0
GRID*               7337               03.1000000000E+012.2392857143E+01+
*       1.8500000000E+01               0
GRID*               7338               03.1000000000E+012.0357142857E+01+
*       1.8500000000E+01               0
GRID*               7339               03.1000000000E+011.8321428571E+01+
*       1.8500000000E+01               0
GRID*               7340               03.1000000000E+011.6285714286E+01+
*       1.8500000000E+01               0
GRID*               7341               03.1000000000E+011.4250000000E+01+
*       1.8500000000E+01               0
GRID*               7342               03.1000000000E+011.2214285714E+01+
*       1.8500000000E+01               0
GRID*               7343               03.1000000000E+011.0178571429E+01+
*       1.8500000000E+01               0
GRID*               7344               03.1000000000E+018.1428571429E+00+
*       1.8500000000E+01               0
GRID*               7345               03.1000000000E+016.1071428571E+00+
*       1.8500000000E+01               0
GRID*               7346               03.1000000000E+014.0714285714E+00+
*       1.8500000000E+01               0
GRID*               7347               03.1000000000E+012.0357142857E+00+
*       1.8500000000E+01               0
GRID*               7348               02.9000000000E+012.6464285714E+01+
*       1.8500000000E+01               0
GRID*               7349               02.9000000000E+012.4428571429E+01+
*       1.8500000000E+01               0
GRID*               7350               02.9000000000E+012.2392857143E+01+
*       1.8500000000E+01               0
GRID*               7351               02.9000000000E+012.0357142857E+01+
*       1.8500000000E+01               0
GRID*               7352               02.9000000000E+011.8321428571E+01+
*       1.8500000000E+01               0
GRID*               7353               02.9000000000E+011.6285714286E+01+
*       1.8500000000E+01               0
GRID*               7354               02.9000000000E+011.4250000000E+01+
*       1.8500000000E+01               0
GRID*               7355               02.9000000000E+011.2214285714E+01+
*       1.8500000000E+01               0
GRID*               7356               02.9000000000E+011.0178571429E+01+
*       1.8500000000E+01               0
GRID*               7357               02.9000000000E+018.1428571429E+00+
*       1.8500000000E+01               0
GRID*               7358               02.9000000000E+016.1071428571E+00+
*       1.8500000000E+01               0
GRID*               7359               02.9000000000E+014.0714285714E+00+
*       1.8500000000E+01               0
GRID*               7360               02.9000000000E+012.0357142857E+00+
*       1.8500000000E+01               0
GRID*               7361               02.7000000000E+012.6464285714E+01+
*       1.8500000000E+01               0
GRID*               7362               02.7000000000E+012.4428571429E+01+
*       1.8500000000E+01               0
GRID*               7363               02.7000000000E+012.2392857143E+01+
*       1.8500000000E+01               0
GRID*               7364               02.7000000000E+012.0357142857E+01+
*       1.8500000000E+01               0
GRID*               7365               02.7000000000E+011.8321428571E+01+
*       1.8500000000E+01               0
GRID*               7366               02.7000000000E+011.6285714286E+01+
*       1.8500000000E+01               0
GRID*               7367               02.7000000000E+011.4250000000E+01+
*       1.8500000000E+01               0
GRID*               7368               02.7000000000E+011.2214285714E+01+
*       1.8500000000E+01               0
GRID*               7369               02.7000000000E+011.0178571429E+01+
*       1.8500000000E+01               0
GRID*               7370               02.7000000000E+018.1428571429E+00+
*       1.8500000000E+01               0
GRID*               7371               02.7000000000E+016.1071428571E+00+
*       1.8500000000E+01               0
GRID*               7372               02.7000000000E+014.0714285714E+00+
*       1.8500000000E+01               0
GRID*               7373               02.7000000000E+012.0357142857E+00+
*       1.8500000000E+01               0
GRID*               7374               02.5000000000E+012.6464285714E+01+
*       1.8500000000E+01               0
GRID*               7375               02.5000000000E+012.4428571429E+01+
*       1.8500000000E+01               0
GRID*               7376               02.5000000000E+012.2392857143E+01+
*       1.8500000000E+01               0
GRID*               7377               02.5000000000E+012.0357142857E+01+
*       1.8500000000E+01               0
GRID*               7378               02.5000000000E+011.8321428571E+01+
*       1.8500000000E+01               0
GRID*               7379               02.5000000000E+011.6285714286E+01+
*       1.8500000000E+01               0
GRID*               7380               02.5000000000E+011.4250000000E+01+
*       1.8500000000E+01               0
GRID*               7381               02.5000000000E+011.2214285714E+01+
*       1.8500000000E+01               0
GRID*               7382               02.5000000000E+011.0178571429E+01+
*       1.8500000000E+01               0
GRID*               7383               02.5000000000E+018.1428571429E+00+
*       1.8500000000E+01               0
GRID*               7384               02.5000000000E+016.1071428571E+00+
*       1.8500000000E+01               0
GRID*               7385               02.5000000000E+014.0714285714E+00+
*       1.8500000000E+01               0
GRID*               7386               02.5000000000E+012.0357142857E+00+
*       1.8500000000E+01               0
GRID*               7387               02.3000000000E+012.6464285714E+01+
*       1.8500000000E+01               0
GRID*               7388               02.3000000000E+012.4428571429E+01+
*       1.8500000000E+01               0
GRID*               7389               02.3000000000E+012.2392857143E+01+
*       1.8500000000E+01               0
GRID*               7390               02.3000000000E+012.0357142857E+01+
*       1.8500000000E+01               0
GRID*               7391               02.3000000000E+011.8321428571E+01+
*       1.8500000000E+01               0
GRID*               7392               02.3000000000E+011.6285714286E+01+
*       1.8500000000E+01               0
GRID*               7393               02.3000000000E+011.4250000000E+01+
*       1.8500000000E+01               0
GRID*               7394               02.3000000000E+011.2214285714E+01+
*       1.8500000000E+01               0
GRID*               7395               02.3000000000E+011.0178571429E+01+
*       1.8500000000E+01               0
GRID*               7396               02.3000000000E+018.1428571429E+00+
*       1.8500000000E+01               0
GRID*               7397               02.3000000000E+016.1071428571E+00+
*       1.8500000000E+01               0
GRID*               7398               02.3000000000E+014.0714285714E+00+
*       1.8500000000E+01               0
GRID*               7399               02.3000000000E+012.0357142857E+00+
*       1.8500000000E+01               0
GRID*               7400               02.1000000000E+012.6464285714E+01+
*       1.8500000000E+01               0
GRID*               7401               02.1000000000E+012.4428571429E+01+
*       1.8500000000E+01               0
GRID*               7402               02.1000000000E+012.2392857143E+01+
*       1.8500000000E+01               0
GRID*               7403               02.1000000000E+012.0357142857E+01+
*       1.8500000000E+01               0
GRID*               7404               02.1000000000E+011.8321428571E+01+
*       1.8500000000E+01               0
GRID*               7405               02.1000000000E+011.6285714286E+01+
*       1.8500000000E+01               0
GRID*               7406               02.1000000000E+011.4250000000E+01+
*       1.8500000000E+01               0
GRID*               7407               02.1000000000E+011.2214285714E+01+
*       1.8500000000E+01               0
GRID*               7408               02.1000000000E+011.0178571429E+01+
*       1.8500000000E+01               0
GRID*               7409               02.1000000000E+018.1428571429E+00+
*       1.8500000000E+01               0
GRID*               7410               02.1000000000E+016.1071428571E+00+
*       1.8500000000E+01               0
GRID*               7411               02.1000000000E+014.0714285714E+00+
*       1.8500000000E+01               0
GRID*               7412               02.1000000000E+012.0357142857E+00+
*       1.8500000000E+01               0
GRID*               7413               01.9000000000E+012.6464285714E+01+
*       1.8500000000E+01               0
GRID*               7414               01.9000000000E+012.4428571429E+01+
*       1.8500000000E+01               0
GRID*               7415               01.9000000000E+012.2392857143E+01+
*       1.8500000000E+01               0
GRID*               7416               01.9000000000E+012.0357142857E+01+
*       1.8500000000E+01               0
GRID*               7417               01.9000000000E+011.8321428571E+01+
*       1.8500000000E+01               0
GRID*               7418               01.9000000000E+011.6285714286E+01+
*       1.8500000000E+01               0
GRID*               7419               01.9000000000E+011.4250000000E+01+
*       1.8500000000E+01               0
GRID*               7420               01.9000000000E+011.2214285714E+01+
*       1.8500000000E+01               0
GRID*               7421               01.9000000000E+011.0178571429E+01+
*       1.8500000000E+01               0
GRID*               7422               01.9000000000E+018.1428571429E+00+
*       1.8500000000E+01               0
GRID*               7423               01.9000000000E+016.1071428571E+00+
*       1.8500000000E+01               0
GRID*               7424               01.9000000000E+014.0714285714E+00+
*       1.8500000000E+01               0
GRID*               7425               01.9000000000E+012.0357142857E+00+
*       1.8500000000E+01               0
GRID*               7426               01.7000000000E+012.6464285714E+01+
*       1.8500000000E+01               0
GRID*               7427               01.7000000000E+012.4428571429E+01+
*       1.8500000000E+01               0
GRID*               7428               01.7000000000E+012.2392857143E+01+
*       1.8500000000E+01               0
GRID*               7429               01.7000000000E+012.0357142857E+01+
*       1.8500000000E+01               0
GRID*               7430               01.7000000000E+011.8321428571E+01+
*       1.8500000000E+01               0
GRID*               7431               01.7000000000E+011.6285714286E+01+
*       1.8500000000E+01               0
GRID*               7432               01.7000000000E+011.4250000000E+01+
*       1.8500000000E+01               0
GRID*               7433               01.7000000000E+011.2214285714E+01+
*       1.8500000000E+01               0
GRID*               7434               01.7000000000E+011.0178571429E+01+
*       1.8500000000E+01               0
GRID*               7435               01.7000000000E+018.1428571429E+00+
*       1.8500000000E+01               0
GRID*               7436               01.7000000000E+016.1071428571E+00+
*       1.8500000000E+01               0
GRID*               7437               01.7000000000E+014.0714285714E+00+
*       1.8500000000E+01               0
GRID*               7438               01.7000000000E+012.0357142857E+00+
*       1.8500000000E+01               0
GRID*               7439               01.5000000000E+012.6464285714E+01+
*       1.8500000000E+01               0
GRID*               7440               01.5000000000E+012.4428571429E+01+
*       1.8500000000E+01               0
GRID*               7441               01.5000000000E+012.2392857143E+01+
*       1.8500000000E+01               0
GRID*               7442               01.5000000000E+012.0357142857E+01+
*       1.8500000000E+01               0
GRID*               7443               01.5000000000E+011.8321428571E+01+
*       1.8500000000E+01               0
GRID*               7444               01.5000000000E+011.6285714286E+01+
*       1.8500000000E+01               0
GRID*               7445               01.5000000000E+011.4250000000E+01+
*       1.8500000000E+01               0
GRID*               7446               01.5000000000E+011.2214285714E+01+
*       1.8500000000E+01               0
GRID*               7447               01.5000000000E+011.0178571429E+01+
*       1.8500000000E+01               0
GRID*               7448               01.5000000000E+018.1428571429E+00+
*       1.8500000000E+01               0
GRID*               7449               01.5000000000E+016.1071428571E+00+
*       1.8500000000E+01               0
GRID*               7450               01.5000000000E+014.0714285714E+00+
*       1.8500000000E+01               0
GRID*               7451               01.5000000000E+012.0357142857E+00+
*       1.8500000000E+01               0
GRID*               7452               01.3000000000E+012.6464285714E+01+
*       1.8500000000E+01               0
GRID*               7453               01.3000000000E+012.4428571429E+01+
*       1.8500000000E+01               0
GRID*               7454               01.3000000000E+012.2392857143E+01+
*       1.8500000000E+01               0
GRID*               7455               01.3000000000E+012.0357142857E+01+
*       1.8500000000E+01               0
GRID*               7456               01.3000000000E+011.8321428571E+01+
*       1.8500000000E+01               0
GRID*               7457               01.3000000000E+011.6285714286E+01+
*       1.8500000000E+01               0
GRID*               7458               01.3000000000E+011.4250000000E+01+
*       1.8500000000E+01               0
GRID*               7459               01.3000000000E+011.2214285714E+01+
*       1.8500000000E+01               0
GRID*               7460               01.3000000000E+011.0178571429E+01+
*       1.8500000000E+01               0
GRID*               7461               01.3000000000E+018.1428571429E+00+
*       1.8500000000E+01               0
GRID*               7462               01.3000000000E+016.1071428571E+00+
*       1.8500000000E+01               0
GRID*               7463               01.3000000000E+014.0714285714E+00+
*       1.8500000000E+01               0
GRID*               7464               01.3000000000E+012.0357142857E+00+
*       1.8500000000E+01               0
GRID*               7465               01.1000000000E+012.6464285714E+01+
*       1.8500000000E+01               0
GRID*               7466               01.1000000000E+012.4428571429E+01+
*       1.8500000000E+01               0
GRID*               7467               01.1000000000E+012.2392857143E+01+
*       1.8500000000E+01               0
GRID*               7468               01.1000000000E+012.0357142857E+01+
*       1.8500000000E+01               0
GRID*               7469               01.1000000000E+011.8321428571E+01+
*       1.8500000000E+01               0
GRID*               7470               01.1000000000E+011.6285714286E+01+
*       1.8500000000E+01               0
GRID*               7471               01.1000000000E+011.4250000000E+01+
*       1.8500000000E+01               0
GRID*               7472               01.1000000000E+011.2214285714E+01+
*       1.8500000000E+01               0
GRID*               7473               01.1000000000E+011.0178571429E+01+
*       1.8500000000E+01               0
GRID*               7474               01.1000000000E+018.1428571429E+00+
*       1.8500000000E+01               0
GRID*               7475               01.1000000000E+016.1071428571E+00+
*       1.8500000000E+01               0
GRID*               7476               01.1000000000E+014.0714285714E+00+
*       1.8500000000E+01               0
GRID*               7477               01.1000000000E+012.0357142857E+00+
*       1.8500000000E+01               0
GRID*               7478               09.0000000000E+002.6464285714E+01+
*       1.8500000000E+01               0
GRID*               7479               09.0000000000E+002.4428571429E+01+
*       1.8500000000E+01               0
GRID*               7480               09.0000000000E+002.2392857143E+01+
*       1.8500000000E+01               0
GRID*               7481               09.0000000000E+002.0357142857E+01+
*       1.8500000000E+01               0
GRID*               7482               09.0000000000E+001.8321428571E+01+
*       1.8500000000E+01               0
GRID*               7483               09.0000000000E+001.6285714286E+01+
*       1.8500000000E+01               0
GRID*               7484               09.0000000000E+001.4250000000E+01+
*       1.8500000000E+01               0
GRID*               7485               09.0000000000E+001.2214285714E+01+
*       1.8500000000E+01               0
GRID*               7486               09.0000000000E+001.0178571429E+01+
*       1.8500000000E+01               0
GRID*               7487               09.0000000000E+008.1428571429E+00+
*       1.8500000000E+01               0
GRID*               7488               09.0000000000E+006.1071428571E+00+
*       1.8500000000E+01               0
GRID*               7489               09.0000000000E+004.0714285714E+00+
*       1.8500000000E+01               0
GRID*               7490               09.0000000000E+002.0357142857E+00+
*       1.8500000000E+01               0
GRID*               7491               07.0000000000E+002.6464285714E+01+
*       1.8500000000E+01               0
GRID*               7492               07.0000000000E+002.4428571429E+01+
*       1.8500000000E+01               0
GRID*               7493               07.0000000000E+002.2392857143E+01+
*       1.8500000000E+01               0
GRID*               7494               07.0000000000E+002.0357142857E+01+
*       1.8500000000E+01               0
GRID*               7495               07.0000000000E+001.8321428571E+01+
*       1.8500000000E+01               0
GRID*               7496               07.0000000000E+001.6285714286E+01+
*       1.8500000000E+01               0
GRID*               7497               07.0000000000E+001.4250000000E+01+
*       1.8500000000E+01               0
GRID*               7498               07.0000000000E+001.2214285714E+01+
*       1.8500000000E+01               0
GRID*               7499               07.0000000000E+001.0178571429E+01+
*       1.8500000000E+01               0
GRID*               7500               07.0000000000E+008.1428571429E+00+
*       1.8500000000E+01               0
GRID*               7501               07.0000000000E+006.1071428571E+00+
*       1.8500000000E+01               0
GRID*               7502               07.0000000000E+004.0714285714E+00+
*       1.8500000000E+01               0
GRID*               7503               07.0000000000E+002.0357142857E+00+
*       1.8500000000E+01               0
GRID*               7504               05.0000000000E+002.6464285714E+01+
*       1.8500000000E+01               0
GRID*               7505               05.0000000000E+002.4428571429E+01+
*       1.8500000000E+01               0
GRID*               7506               05.0000000000E+002.2392857143E+01+
*       1.8500000000E+01               0
GRID*               7507               05.0000000000E+002.0357142857E+01+
*       1.8500000000E+01               0
GRID*               7508               05.0000000000E+001.8321428571E+01+
*       1.8500000000E+01               0
GRID*               7509               05.0000000000E+001.6285714286E+01+
*       1.8500000000E+01               0
GRID*               7510               05.0000000000E+001.4250000000E+01+
*       1.8500000000E+01               0
GRID*               7511               05.0000000000E+001.2214285714E+01+
*       1.8500000000E+01               0
GRID*               7512               05.0000000000E+001.0178571429E+01+
*       1.8500000000E+01               0
GRID*               7513               05.0000000000E+008.1428571429E+00+
*       1.8500000000E+01               0
GRID*               7514               05.0000000000E+006.1071428571E+00+
*       1.8500000000E+01               0
GRID*               7515               05.0000000000E+004.0714285714E+00+
*       1.8500000000E+01               0
GRID*               7516               05.0000000000E+002.0357142857E+00+
*       1.8500000000E+01               0
GRID*               7517               03.0000000000E+002.6464285714E+01+
*       1.8500000000E+01               0
GRID*               7518               03.0000000000E+002.4428571429E+01+
*       1.8500000000E+01               0
GRID*               7519               03.0000000000E+002.2392857143E+01+
*       1.8500000000E+01               0
GRID*               7520               03.0000000000E+002.0357142857E+01+
*       1.8500000000E+01               0
GRID*               7521               03.0000000000E+001.8321428571E+01+
*       1.8500000000E+01               0
GRID*               7522               03.0000000000E+001.6285714286E+01+
*       1.8500000000E+01               0
GRID*               7523               03.0000000000E+001.4250000000E+01+
*       1.8500000000E+01               0
GRID*               7524               03.0000000000E+001.2214285714E+01+
*       1.8500000000E+01               0
GRID*               7525               03.0000000000E+001.0178571429E+01+
*       1.8500000000E+01               0
GRID*               7526               03.0000000000E+008.1428571429E+00+
*       1.8500000000E+01               0
GRID*               7527               03.0000000000E+006.1071428571E+00+
*       1.8500000000E+01               0
GRID*               7528               03.0000000000E+004.0714285714E+00+
*       1.8500000000E+01               0
GRID*               7529               03.0000000000E+002.0357142857E+00+
*       1.8500000000E+01               0
GRID*               7530               01.0000000000E+002.6464285714E+01+
*       1.8500000000E+01               0
GRID*               7531               01.0000000000E+002.4428571429E+01+
*       1.8500000000E+01               0
GRID*               7532               01.0000000000E+002.2392857143E+01+
*       1.8500000000E+01               0
GRID*               7533               01.0000000000E+002.0357142857E+01+
*       1.8500000000E+01               0
GRID*               7534               01.0000000000E+001.8321428571E+01+
*       1.8500000000E+01               0
GRID*               7535               01.0000000000E+001.6285714286E+01+
*       1.8500000000E+01               0
GRID*               7536               01.0000000000E+001.4250000000E+01+
*       1.8500000000E+01               0
GRID*               7537               01.0000000000E+001.2214285714E+01+
*       1.8500000000E+01               0
GRID*               7538               01.0000000000E+001.0178571429E+01+
*       1.8500000000E+01               0
GRID*               7539               01.0000000000E+008.1428571429E+00+
*       1.8500000000E+01               0
GRID*               7540               01.0000000000E+006.1071428571E+00+
*       1.8500000000E+01               0
GRID*               7541               01.0000000000E+004.0714285714E+00+
*       1.8500000000E+01               0
GRID*               7542               01.0000000000E+002.0357142857E+00+
*       1.8500000000E+01               0
GRID*               7543               0-1.000000000E+002.6464285714E+01+
*       1.8500000000E+01               0
GRID*               7544               0-1.000000000E+002.4428571429E+01+
*       1.8500000000E+01               0
GRID*               7545               0-1.000000000E+002.2392857143E+01+
*       1.8500000000E+01               0
GRID*               7546               0-1.000000000E+002.0357142857E+01+
*       1.8500000000E+01               0
GRID*               7547               0-1.000000000E+001.8321428571E+01+
*       1.8500000000E+01               0
GRID*               7548               0-1.000000000E+001.6285714286E+01+
*       1.8500000000E+01               0
GRID*               7549               0-1.000000000E+001.4250000000E+01+
*       1.8500000000E+01               0
GRID*               7550               0-1.000000000E+001.2214285714E+01+
*       1.8500000000E+01               0
GRID*               7551               0-1.000000000E+001.0178571429E+01+
*       1.8500000000E+01               0
GRID*               7552               0-1.000000000E+008.1428571429E+00+
*       1.8500000000E+01               0
GRID*               7553               0-1.000000000E+006.1071428571E+00+
*       1.8500000000E+01               0
GRID*               7554               0-1.000000000E+004.0714285714E+00+
*       1.8500000000E+01               0
GRID*               7555               0-1.000000000E+002.0357142857E+00+
*       1.8500000000E+01               0
GRID*               7556               0-3.000000000E+002.6464285714E+01+
*       1.8500000000E+01               0
GRID*               7557               0-3.000000000E+002.4428571429E+01+
*       1.8500000000E+01               0
GRID*               7558               0-3.000000000E+002.2392857143E+01+
*       1.8500000000E+01               0
GRID*               7559               0-3.000000000E+002.0357142857E+01+
*       1.8500000000E+01               0
GRID*               7560               0-3.000000000E+001.8321428571E+01+
*       1.8500000000E+01               0
GRID*               7561               0-3.000000000E+001.6285714286E+01+
*       1.8500000000E+01               0
GRID*               7562               0-3.000000000E+001.4250000000E+01+
*       1.8500000000E+01               0
GRID*               7563               0-3.000000000E+001.2214285714E+01+
*       1.8500000000E+01               0
GRID*               7564               0-3.000000000E+001.0178571429E+01+
*       1.8500000000E+01               0
GRID*               7565               0-3.000000000E+008.1428571429E+00+
*       1.8500000000E+01               0
GRID*               7566               0-3.000000000E+006.1071428571E+00+
*       1.8500000000E+01               0
GRID*               7567               0-3.000000000E+004.0714285714E+00+
*       1.8500000000E+01               0
GRID*               7568               0-3.000000000E+002.0357142857E+00+
*       1.8500000000E+01               0
GRID*               7569               0-5.000000000E+002.6464285714E+01+
*       1.8500000000E+01               0
GRID*               7570               0-5.000000000E+002.4428571429E+01+
*       1.8500000000E+01               0
GRID*               7571               0-5.000000000E+002.2392857143E+01+
*       1.8500000000E+01               0
GRID*               7572               0-5.000000000E+002.0357142857E+01+
*       1.8500000000E+01               0
GRID*               7573               0-5.000000000E+001.8321428571E+01+
*       1.8500000000E+01               0
GRID*               7574               0-5.000000000E+001.6285714286E+01+
*       1.8500000000E+01               0
GRID*               7575               0-5.000000000E+001.4250000000E+01+
*       1.8500000000E+01               0
GRID*               7576               0-5.000000000E+001.2214285714E+01+
*       1.8500000000E+01               0
GRID*               7577               0-5.000000000E+001.0178571429E+01+
*       1.8500000000E+01               0
GRID*               7578               0-5.000000000E+008.1428571429E+00+
*       1.8500000000E+01               0
GRID*               7579               0-5.000000000E+006.1071428571E+00+
*       1.8500000000E+01               0
GRID*               7580               0-5.000000000E+004.0714285714E+00+
*       1.8500000000E+01               0
GRID*               7581               0-5.000000000E+002.0357142857E+00+
*       1.8500000000E+01               0
GRID*               7582               0-7.000000000E+002.6464285714E+01+
*       1.8500000000E+01               0
GRID*               7583               0-7.000000000E+002.4428571429E+01+
*       1.8500000000E+01               0
GRID*               7584               0-7.000000000E+002.2392857143E+01+
*       1.8500000000E+01               0
GRID*               7585               0-7.000000000E+002.0357142857E+01+
*       1.8500000000E+01               0
GRID*               7586               0-7.000000000E+001.8321428571E+01+
*       1.8500000000E+01               0
GRID*               7587               0-7.000000000E+001.6285714286E+01+
*       1.8500000000E+01               0
GRID*               7588               0-7.000000000E+001.4250000000E+01+
*       1.8500000000E+01               0
GRID*               7589               0-7.000000000E+001.2214285714E+01+
*       1.8500000000E+01               0
GRID*               7590               0-7.000000000E+001.0178571429E+01+
*       1.8500000000E+01               0
GRID*               7591               0-7.000000000E+008.1428571429E+00+
*       1.8500000000E+01               0
GRID*               7592               0-7.000000000E+006.1071428571E+00+
*       1.8500000000E+01               0
GRID*               7593               0-7.000000000E+004.0714285714E+00+
*       1.8500000000E+01               0
GRID*               7594               0-7.000000000E+002.0357142857E+00+
*       1.8500000000E+01               0
GRID*               7595               0-9.000000000E+002.6464285714E+01+
*       1.8500000000E+01               0
GRID*               7596               0-9.000000000E+002.4428571429E+01+
*       1.8500000000E+01               0
GRID*               7597               0-9.000000000E+002.2392857143E+01+
*       1.8500000000E+01               0
GRID*               7598               0-9.000000000E+002.0357142857E+01+
*       1.8500000000E+01               0
GRID*               7599               0-9.000000000E+001.8321428571E+01+
*       1.8500000000E+01               0
GRID*               7600               0-9.000000000E+001.6285714286E+01+
*       1.8500000000E+01               0
GRID*               7601               0-9.000000000E+001.4250000000E+01+
*       1.8500000000E+01               0
GRID*               7602               0-9.000000000E+001.2214285714E+01+
*       1.8500000000E+01               0
GRID*               7603               0-9.000000000E+001.0178571429E+01+
*       1.8500000000E+01               0
GRID*               7604               0-9.000000000E+008.1428571429E+00+
*       1.8500000000E+01               0
GRID*               7605               0-9.000000000E+006.1071428571E+00+
*       1.8500000000E+01               0
GRID*               7606               0-9.000000000E+004.0714285714E+00+
*       1.8500000000E+01               0
GRID*               7607               0-9.000000000E+002.0357142857E+00+
*       1.8500000000E+01               0
GRID*               7608               0-1.100000000E+012.6464285714E+01+
*       1.8500000000E+01               0
GRID*               7609               0-1.100000000E+012.4428571429E+01+
*       1.8500000000E+01               0
GRID*               7610               0-1.100000000E+012.2392857143E+01+
*       1.8500000000E+01               0
GRID*               7611               0-1.100000000E+012.0357142857E+01+
*       1.8500000000E+01               0
GRID*               7612               0-1.100000000E+011.8321428571E+01+
*       1.8500000000E+01               0
GRID*               7613               0-1.100000000E+011.6285714286E+01+
*       1.8500000000E+01               0
GRID*               7614               0-1.100000000E+011.4250000000E+01+
*       1.8500000000E+01               0
GRID*               7615               0-1.100000000E+011.2214285714E+01+
*       1.8500000000E+01               0
GRID*               7616               0-1.100000000E+011.0178571429E+01+
*       1.8500000000E+01               0
GRID*               7617               0-1.100000000E+018.1428571429E+00+
*       1.8500000000E+01               0
GRID*               7618               0-1.100000000E+016.1071428571E+00+
*       1.8500000000E+01               0
GRID*               7619               0-1.100000000E+014.0714285714E+00+
*       1.8500000000E+01               0
GRID*               7620               0-1.100000000E+012.0357142857E+00+
*       1.8500000000E+01               0
GRID*               7621               0-1.300000000E+012.6464285714E+01+
*       1.8500000000E+01               0
GRID*               7622               0-1.300000000E+012.4428571429E+01+
*       1.8500000000E+01               0
GRID*               7623               0-1.300000000E+012.2392857143E+01+
*       1.8500000000E+01               0
GRID*               7624               0-1.300000000E+012.0357142857E+01+
*       1.8500000000E+01               0
GRID*               7625               0-1.300000000E+011.8321428571E+01+
*       1.8500000000E+01               0
GRID*               7626               0-1.300000000E+011.6285714286E+01+
*       1.8500000000E+01               0
GRID*               7627               0-1.300000000E+011.4250000000E+01+
*       1.8500000000E+01               0
GRID*               7628               0-1.300000000E+011.2214285714E+01+
*       1.8500000000E+01               0
GRID*               7629               0-1.300000000E+011.0178571429E+01+
*       1.8500000000E+01               0
GRID*               7630               0-1.300000000E+018.1428571429E+00+
*       1.8500000000E+01               0
GRID*               7631               0-1.300000000E+016.1071428571E+00+
*       1.8500000000E+01               0
GRID*               7632               0-1.300000000E+014.0714285714E+00+
*       1.8500000000E+01               0
GRID*               7633               0-1.300000000E+012.0357142857E+00+
*       1.8500000000E+01               0
GRID*               7634               0-1.500000000E+012.6464285714E+01+
*       1.8500000000E+01               0
GRID*               7635               0-1.500000000E+012.4428571429E+01+
*       1.8500000000E+01               0
GRID*               7636               0-1.500000000E+012.2392857143E+01+
*       1.8500000000E+01               0
GRID*               7637               0-1.500000000E+012.0357142857E+01+
*       1.8500000000E+01               0
GRID*               7638               0-1.500000000E+011.8321428571E+01+
*       1.8500000000E+01               0
GRID*               7639               0-1.500000000E+011.6285714286E+01+
*       1.8500000000E+01               0
GRID*               7640               0-1.500000000E+011.4250000000E+01+
*       1.8500000000E+01               0
GRID*               7641               0-1.500000000E+011.2214285714E+01+
*       1.8500000000E+01               0
GRID*               7642               0-1.500000000E+011.0178571429E+01+
*       1.8500000000E+01               0
GRID*               7643               0-1.500000000E+018.1428571429E+00+
*       1.8500000000E+01               0
GRID*               7644               0-1.500000000E+016.1071428571E+00+
*       1.8500000000E+01               0
GRID*               7645               0-1.500000000E+014.0714285714E+00+
*       1.8500000000E+01               0
GRID*               7646               0-1.500000000E+012.0357142857E+00+
*       1.8500000000E+01               0
GRID*               7647               0-1.700000000E+012.6464285714E+01+
*       1.8500000000E+01               0
GRID*               7648               0-1.700000000E+012.4428571429E+01+
*       1.8500000000E+01               0
GRID*               7649               0-1.700000000E+012.2392857143E+01+
*       1.8500000000E+01               0
GRID*               7650               0-1.700000000E+012.0357142857E+01+
*       1.8500000000E+01               0
GRID*               7651               0-1.700000000E+011.8321428571E+01+
*       1.8500000000E+01               0
GRID*               7652               0-1.700000000E+011.6285714286E+01+
*       1.8500000000E+01               0
GRID*               7653               0-1.700000000E+011.4250000000E+01+
*       1.8500000000E+01               0
GRID*               7654               0-1.700000000E+011.2214285714E+01+
*       1.8500000000E+01               0
GRID*               7655               0-1.700000000E+011.0178571429E+01+
*       1.8500000000E+01               0
GRID*               7656               0-1.700000000E+018.1428571429E+00+
*       1.8500000000E+01               0
GRID*               7657               0-1.700000000E+016.1071428571E+00+
*       1.8500000000E+01               0
GRID*               7658               0-1.700000000E+014.0714285714E+00+
*       1.8500000000E+01               0
GRID*               7659               0-1.700000000E+012.0357142857E+00+
*       1.8500000000E+01               0
GRID*               7660               0-1.900000000E+012.6464285714E+01+
*       1.8500000000E+01               0
GRID*               7661               0-1.900000000E+012.4428571429E+01+
*       1.8500000000E+01               0
GRID*               7662               0-1.900000000E+012.2392857143E+01+
*       1.8500000000E+01               0
GRID*               7663               0-1.900000000E+012.0357142857E+01+
*       1.8500000000E+01               0
GRID*               7664               0-1.900000000E+011.8321428571E+01+
*       1.8500000000E+01               0
GRID*               7665               0-1.900000000E+011.6285714286E+01+
*       1.8500000000E+01               0
GRID*               7666               0-1.900000000E+011.4250000000E+01+
*       1.8500000000E+01               0
GRID*               7667               0-1.900000000E+011.2214285714E+01+
*       1.8500000000E+01               0
GRID*               7668               0-1.900000000E+011.0178571429E+01+
*       1.8500000000E+01               0
GRID*               7669               0-1.900000000E+018.1428571429E+00+
*       1.8500000000E+01               0
GRID*               7670               0-1.900000000E+016.1071428571E+00+
*       1.8500000000E+01               0
GRID*               7671               0-1.900000000E+014.0714285714E+00+
*       1.8500000000E+01               0
GRID*               7672               0-1.900000000E+012.0357142857E+00+
*       1.8500000000E+01               0
GRID*               7673               0-2.100000000E+012.6464285714E+01+
*       1.8500000000E+01               0
GRID*               7674               0-2.100000000E+012.4428571429E+01+
*       1.8500000000E+01               0
GRID*               7675               0-2.100000000E+012.2392857143E+01+
*       1.8500000000E+01               0
GRID*               7676               0-2.100000000E+012.0357142857E+01+
*       1.8500000000E+01               0
GRID*               7677               0-2.100000000E+011.8321428571E+01+
*       1.8500000000E+01               0
GRID*               7678               0-2.100000000E+011.6285714286E+01+
*       1.8500000000E+01               0
GRID*               7679               0-2.100000000E+011.4250000000E+01+
*       1.8500000000E+01               0
GRID*               7680               0-2.100000000E+011.2214285714E+01+
*       1.8500000000E+01               0
GRID*               7681               0-2.100000000E+011.0178571429E+01+
*       1.8500000000E+01               0
GRID*               7682               0-2.100000000E+018.1428571429E+00+
*       1.8500000000E+01               0
GRID*               7683               0-2.100000000E+016.1071428571E+00+
*       1.8500000000E+01               0
GRID*               7684               0-2.100000000E+014.0714285714E+00+
*       1.8500000000E+01               0
GRID*               7685               0-2.100000000E+012.0357142857E+00+
*       1.8500000000E+01               0
GRID*               7686               0-2.300000000E+012.6464285714E+01+
*       1.8500000000E+01               0
GRID*               7687               0-2.300000000E+012.4428571429E+01+
*       1.8500000000E+01               0
GRID*               7688               0-2.300000000E+012.2392857143E+01+
*       1.8500000000E+01               0
GRID*               7689               0-2.300000000E+012.0357142857E+01+
*       1.8500000000E+01               0
GRID*               7690               0-2.300000000E+011.8321428571E+01+
*       1.8500000000E+01               0
GRID*               7691               0-2.300000000E+011.6285714286E+01+
*       1.8500000000E+01               0
GRID*               7692               0-2.300000000E+011.4250000000E+01+
*       1.8500000000E+01               0
GRID*               7693               0-2.300000000E+011.2214285714E+01+
*       1.8500000000E+01               0
GRID*               7694               0-2.300000000E+011.0178571429E+01+
*       1.8500000000E+01               0
GRID*               7695               0-2.300000000E+018.1428571429E+00+
*       1.8500000000E+01               0
GRID*               7696               0-2.300000000E+016.1071428571E+00+
*       1.8500000000E+01               0
GRID*               7697               0-2.300000000E+014.0714285714E+00+
*       1.8500000000E+01               0
GRID*               7698               0-2.300000000E+012.0357142857E+00+
*       1.8500000000E+01               0
GRID*               7699               0-2.500000000E+012.6464285714E+01+
*       1.8500000000E+01               0
GRID*               7700               0-2.500000000E+012.4428571429E+01+
*       1.8500000000E+01               0
GRID*               7701               0-2.500000000E+012.2392857143E+01+
*       1.8500000000E+01               0
GRID*               7702               0-2.500000000E+012.0357142857E+01+
*       1.8500000000E+01               0
GRID*               7703               0-2.500000000E+011.8321428571E+01+
*       1.8500000000E+01               0
GRID*               7704               0-2.500000000E+011.6285714286E+01+
*       1.8500000000E+01               0
GRID*               7705               0-2.500000000E+011.4250000000E+01+
*       1.8500000000E+01               0
GRID*               7706               0-2.500000000E+011.2214285714E+01+
*       1.8500000000E+01               0
GRID*               7707               0-2.500000000E+011.0178571429E+01+
*       1.8500000000E+01               0
GRID*               7708               0-2.500000000E+018.1428571429E+00+
*       1.8500000000E+01               0
GRID*               7709               0-2.500000000E+016.1071428571E+00+
*       1.8500000000E+01               0
GRID*               7710               0-2.500000000E+014.0714285714E+00+
*       1.8500000000E+01               0
GRID*               7711               0-2.500000000E+012.0357142857E+00+
*       1.8500000000E+01               0
GRID*               7712               0-2.700000000E+012.6464285714E+01+
*       1.8500000000E+01               0
GRID*               7713               0-2.700000000E+012.4428571429E+01+
*       1.8500000000E+01               0
GRID*               7714               0-2.700000000E+012.2392857143E+01+
*       1.8500000000E+01               0
GRID*               7715               0-2.700000000E+012.0357142857E+01+
*       1.8500000000E+01               0
GRID*               7716               0-2.700000000E+011.8321428571E+01+
*       1.8500000000E+01               0
GRID*               7717               0-2.700000000E+011.6285714286E+01+
*       1.8500000000E+01               0
GRID*               7718               0-2.700000000E+011.4250000000E+01+
*       1.8500000000E+01               0
GRID*               7719               0-2.700000000E+011.2214285714E+01+
*       1.8500000000E+01               0
GRID*               7720               0-2.700000000E+011.0178571429E+01+
*       1.8500000000E+01               0
GRID*               7721               0-2.700000000E+018.1428571429E+00+
*       1.8500000000E+01               0
GRID*               7722               0-2.700000000E+016.1071428571E+00+
*       1.8500000000E+01               0
GRID*               7723               0-2.700000000E+014.0714285714E+00+
*       1.8500000000E+01               0
GRID*               7724               0-2.700000000E+012.0357142857E+00+
*       1.8500000000E+01               0
GRID*               7725               0-2.900000000E+012.6464285714E+01+
*       1.8500000000E+01               0
GRID*               7726               0-2.900000000E+012.4428571429E+01+
*       1.8500000000E+01               0
GRID*               7727               0-2.900000000E+012.2392857143E+01+
*       1.8500000000E+01               0
GRID*               7728               0-2.900000000E+012.0357142857E+01+
*       1.8500000000E+01               0
GRID*               7729               0-2.900000000E+011.8321428571E+01+
*       1.8500000000E+01               0
GRID*               7730               0-2.900000000E+011.6285714286E+01+
*       1.8500000000E+01               0
GRID*               7731               0-2.900000000E+011.4250000000E+01+
*       1.8500000000E+01               0
GRID*               7732               0-2.900000000E+011.2214285714E+01+
*       1.8500000000E+01               0
GRID*               7733               0-2.900000000E+011.0178571429E+01+
*       1.8500000000E+01               0
GRID*               7734               0-2.900000000E+018.1428571429E+00+
*       1.8500000000E+01               0
GRID*               7735               0-2.900000000E+016.1071428571E+00+
*       1.8500000000E+01               0
GRID*               7736               0-2.900000000E+014.0714285714E+00+
*       1.8500000000E+01               0
GRID*               7737               0-2.900000000E+012.0357142857E+00+
*       1.8500000000E+01               0
GRID*               7738               0-3.100000000E+012.6464285714E+01+
*       1.8500000000E+01               0
GRID*               7739               0-3.100000000E+012.4428571429E+01+
*       1.8500000000E+01               0
GRID*               7740               0-3.100000000E+012.2392857143E+01+
*       1.8500000000E+01               0
GRID*               7741               0-3.100000000E+012.0357142857E+01+
*       1.8500000000E+01               0
GRID*               7742               0-3.100000000E+011.8321428571E+01+
*       1.8500000000E+01               0
GRID*               7743               0-3.100000000E+011.6285714286E+01+
*       1.8500000000E+01               0
GRID*               7744               0-3.100000000E+011.4250000000E+01+
*       1.8500000000E+01               0
GRID*               7745               0-3.100000000E+011.2214285714E+01+
*       1.8500000000E+01               0
GRID*               7746               0-3.100000000E+011.0178571429E+01+
*       1.8500000000E+01               0
GRID*               7747               0-3.100000000E+018.1428571429E+00+
*       1.8500000000E+01               0
GRID*               7748               0-3.100000000E+016.1071428571E+00+
*       1.8500000000E+01               0
GRID*               7749               0-3.100000000E+014.0714285714E+00+
*       1.8500000000E+01               0
GRID*               7750               0-3.100000000E+012.0357142857E+00+
*       1.8500000000E+01               0
GRID*               7751               0-3.300000000E+012.6464285714E+01+
*       1.8500000000E+01               0
GRID*               7752               0-3.300000000E+012.4428571429E+01+
*       1.8500000000E+01               0
GRID*               7753               0-3.300000000E+012.2392857143E+01+
*       1.8500000000E+01               0
GRID*               7754               0-3.300000000E+012.0357142857E+01+
*       1.8500000000E+01               0
GRID*               7755               0-3.300000000E+011.8321428571E+01+
*       1.8500000000E+01               0
GRID*               7756               0-3.300000000E+011.6285714286E+01+
*       1.8500000000E+01               0
GRID*               7757               0-3.300000000E+011.4250000000E+01+
*       1.8500000000E+01               0
GRID*               7758               0-3.300000000E+011.2214285714E+01+
*       1.8500000000E+01               0
GRID*               7759               0-3.300000000E+011.0178571429E+01+
*       1.8500000000E+01               0
GRID*               7760               0-3.300000000E+018.1428571429E+00+
*       1.8500000000E+01               0
GRID*               7761               0-3.300000000E+016.1071428571E+00+
*       1.8500000000E+01               0
GRID*               7762               0-3.300000000E+014.0714285714E+00+
*       1.8500000000E+01               0
GRID*               7763               0-3.300000000E+012.0357142857E+00+
*       1.8500000000E+01               0
GRID*               7764               0-3.500000000E+012.6464285714E+01+
*       1.8500000000E+01               0
GRID*               7765               0-3.500000000E+012.4428571429E+01+
*       1.8500000000E+01               0
GRID*               7766               0-3.500000000E+012.2392857143E+01+
*       1.8500000000E+01               0
GRID*               7767               0-3.500000000E+012.0357142857E+01+
*       1.8500000000E+01               0
GRID*               7768               0-3.500000000E+011.8321428571E+01+
*       1.8500000000E+01               0
GRID*               7769               0-3.500000000E+011.6285714286E+01+
*       1.8500000000E+01               0
GRID*               7770               0-3.500000000E+011.4250000000E+01+
*       1.8500000000E+01               0
GRID*               7771               0-3.500000000E+011.2214285714E+01+
*       1.8500000000E+01               0
GRID*               7772               0-3.500000000E+011.0178571429E+01+
*       1.8500000000E+01               0
GRID*               7773               0-3.500000000E+018.1428571429E+00+
*       1.8500000000E+01               0
GRID*               7774               0-3.500000000E+016.1071428571E+00+
*       1.8500000000E+01               0
GRID*               7775               0-3.500000000E+014.0714285714E+00+
*       1.8500000000E+01               0
GRID*               7776               0-3.500000000E+012.0357142857E+00+
*       1.8500000000E+01               0
GRID*               7777               0-3.700000000E+012.6464285714E+01+
*       1.8500000000E+01               0
GRID*               7778               0-3.700000000E+012.4428571429E+01+
*       1.8500000000E+01               0
GRID*               7779               0-3.700000000E+012.2392857143E+01+
*       1.8500000000E+01               0
GRID*               7780               0-3.700000000E+012.0357142857E+01+
*       1.8500000000E+01               0
GRID*               7781               0-3.700000000E+011.8321428571E+01+
*       1.8500000000E+01               0
GRID*               7782               0-3.700000000E+011.6285714286E+01+
*       1.8500000000E+01               0
GRID*               7783               0-3.700000000E+011.4250000000E+01+
*       1.8500000000E+01               0
GRID*               7784               0-3.700000000E+011.2214285714E+01+
*       1.8500000000E+01               0
GRID*               7785               0-3.700000000E+011.0178571429E+01+
*       1.8500000000E+01               0
GRID*               7786               0-3.700000000E+018.1428571429E+00+
*       1.8500000000E+01               0
GRID*               7787               0-3.700000000E+016.1071428571E+00+
*       1.8500000000E+01               0
GRID*               7788               0-3.700000000E+014.0714285714E+00+
*       1.8500000000E+01               0
GRID*               7789               0-3.700000000E+012.0357142857E+00+
*       1.8500000000E+01               0
GRID*               7790               0-3.900000000E+012.6464285714E+01+
*       1.8500000000E+01               0
GRID*               7791               0-3.900000000E+012.4428571429E+01+
*       1.8500000000E+01               0
GRID*               7792               0-3.900000000E+012.2392857143E+01+
*       1.8500000000E+01               0
GRID*               7793               0-3.900000000E+012.0357142857E+01+
*       1.8500000000E+01               0
GRID*               7794               0-3.900000000E+011.8321428571E+01+
*       1.8500000000E+01               0
GRID*               7795               0-3.900000000E+011.6285714286E+01+
*       1.8500000000E+01               0
GRID*               7796               0-3.900000000E+011.4250000000E+01+
*       1.8500000000E+01               0
GRID*               7797               0-3.900000000E+011.2214285714E+01+
*       1.8500000000E+01               0
GRID*               7798               0-3.900000000E+011.0178571429E+01+
*       1.8500000000E+01               0
GRID*               7799               0-3.900000000E+018.1428571429E+00+
*       1.8500000000E+01               0
GRID*               7800               0-3.900000000E+016.1071428571E+00+
*       1.8500000000E+01               0
GRID*               7801               0-3.900000000E+014.0714285714E+00+
*       1.8500000000E+01               0
GRID*               7802               0-3.900000000E+012.0357142857E+00+
*       1.8500000000E+01               0
GRID*               7803               0-4.100000000E+012.6464285714E+01+
*       1.8500000000E+01               0
GRID*               7804               0-4.100000000E+012.4428571429E+01+
*       1.8500000000E+01               0
GRID*               7805               0-4.100000000E+012.2392857143E+01+
*       1.8500000000E+01               0
GRID*               7806               0-4.100000000E+012.0357142857E+01+
*       1.8500000000E+01               0
GRID*               7807               0-4.100000000E+011.8321428571E+01+
*       1.8500000000E+01               0
GRID*               7808               0-4.100000000E+011.6285714286E+01+
*       1.8500000000E+01               0
GRID*               7809               0-4.100000000E+011.4250000000E+01+
*       1.8500000000E+01               0
GRID*               7810               0-4.100000000E+011.2214285714E+01+
*       1.8500000000E+01               0
GRID*               7811               0-4.100000000E+011.0178571429E+01+
*       1.8500000000E+01               0
GRID*               7812               0-4.100000000E+018.1428571429E+00+
*       1.8500000000E+01               0
GRID*               7813               0-4.100000000E+016.1071428571E+00+
*       1.8500000000E+01               0
GRID*               7814               0-4.100000000E+014.0714285714E+00+
*       1.8500000000E+01               0
GRID*               7815               0-4.100000000E+012.0357142857E+00+
*       1.8500000000E+01               0
GRID*               7816               0-4.300000000E+012.6464285714E+01+
*       1.8500000000E+01               0
GRID*               7817               0-4.300000000E+012.4428571429E+01+
*       1.8500000000E+01               0
GRID*               7818               0-4.300000000E+012.2392857143E+01+
*       1.8500000000E+01               0
GRID*               7819               0-4.300000000E+012.0357142857E+01+
*       1.8500000000E+01               0
GRID*               7820               0-4.300000000E+011.8321428571E+01+
*       1.8500000000E+01               0
GRID*               7821               0-4.300000000E+011.6285714286E+01+
*       1.8500000000E+01               0
GRID*               7822               0-4.300000000E+011.4250000000E+01+
*       1.8500000000E+01               0
GRID*               7823               0-4.300000000E+011.2214285714E+01+
*       1.8500000000E+01               0
GRID*               7824               0-4.300000000E+011.0178571429E+01+
*       1.8500000000E+01               0
GRID*               7825               0-4.300000000E+018.1428571429E+00+
*       1.8500000000E+01               0
GRID*               7826               0-4.300000000E+016.1071428571E+00+
*       1.8500000000E+01               0
GRID*               7827               0-4.300000000E+014.0714285714E+00+
*       1.8500000000E+01               0
GRID*               7828               0-4.300000000E+012.0357142857E+00+
*       1.8500000000E+01               0
GRID*               7829               0-4.500000000E+012.6464285714E+01+
*       1.8500000000E+01               0
GRID*               7830               0-4.500000000E+012.4428571429E+01+
*       1.8500000000E+01               0
GRID*               7831               0-4.500000000E+012.2392857143E+01+
*       1.8500000000E+01               0
GRID*               7832               0-4.500000000E+012.0357142857E+01+
*       1.8500000000E+01               0
GRID*               7833               0-4.500000000E+011.8321428571E+01+
*       1.8500000000E+01               0
GRID*               7834               0-4.500000000E+011.6285714286E+01+
*       1.8500000000E+01               0
GRID*               7835               0-4.500000000E+011.4250000000E+01+
*       1.8500000000E+01               0
GRID*               7836               0-4.500000000E+011.2214285714E+01+
*       1.8500000000E+01               0
GRID*               7837               0-4.500000000E+011.0178571429E+01+
*       1.8500000000E+01               0
GRID*               7838               0-4.500000000E+018.1428571429E+00+
*       1.8500000000E+01               0
GRID*               7839               0-4.500000000E+016.1071428571E+00+
*       1.8500000000E+01               0
GRID*               7840               0-4.500000000E+014.0714285714E+00+
*       1.8500000000E+01               0
GRID*               7841               0-4.500000000E+012.0357142857E+00+
*       1.8500000000E+01               0
GRID*               7842               0-4.700000000E+012.6464285714E+01+
*       1.8500000000E+01               0
GRID*               7843               0-4.700000000E+012.4428571429E+01+
*       1.8500000000E+01               0
GRID*               7844               0-4.700000000E+012.2392857143E+01+
*       1.8500000000E+01               0
GRID*               7845               0-4.700000000E+012.0357142857E+01+
*       1.8500000000E+01               0
GRID*               7846               0-4.700000000E+011.8321428571E+01+
*       1.8500000000E+01               0
GRID*               7847               0-4.700000000E+011.6285714286E+01+
*       1.8500000000E+01               0
GRID*               7848               0-4.700000000E+011.4250000000E+01+
*       1.8500000000E+01               0
GRID*               7849               0-4.700000000E+011.2214285714E+01+
*       1.8500000000E+01               0
GRID*               7850               0-4.700000000E+011.0178571429E+01+
*       1.8500000000E+01               0
GRID*               7851               0-4.700000000E+018.1428571429E+00+
*       1.8500000000E+01               0
GRID*               7852               0-4.700000000E+016.1071428571E+00+
*       1.8500000000E+01               0
GRID*               7853               0-4.700000000E+014.0714285714E+00+
*       1.8500000000E+01               0
GRID*               7854               0-4.700000000E+012.0357142857E+00+
*       1.8500000000E+01               0
GRID*               7855               0-4.900000000E+012.6464285714E+01+
*       1.8500000000E+01               0
GRID*               7856               0-4.900000000E+012.4428571429E+01+
*       1.8500000000E+01               0
GRID*               7857               0-4.900000000E+012.2392857143E+01+
*       1.8500000000E+01               0
GRID*               7858               0-4.900000000E+012.0357142857E+01+
*       1.8500000000E+01               0
GRID*               7859               0-4.900000000E+011.8321428571E+01+
*       1.8500000000E+01               0
GRID*               7860               0-4.900000000E+011.6285714286E+01+
*       1.8500000000E+01               0
GRID*               7861               0-4.900000000E+011.4250000000E+01+
*       1.8500000000E+01               0
GRID*               7862               0-4.900000000E+011.2214285714E+01+
*       1.8500000000E+01               0
GRID*               7863               0-4.900000000E+011.0178571429E+01+
*       1.8500000000E+01               0
GRID*               7864               0-4.900000000E+018.1428571429E+00+
*       1.8500000000E+01               0
GRID*               7865               0-4.900000000E+016.1071428571E+00+
*       1.8500000000E+01               0
GRID*               7866               0-4.900000000E+014.0714285714E+00+
*       1.8500000000E+01               0
GRID*               7867               0-4.900000000E+012.0357142857E+00+
*       1.8500000000E+01               0
GRID*               7868               0-5.100000000E+012.6464285714E+01+
*       1.8500000000E+01               0
GRID*               7869               0-5.100000000E+012.4428571429E+01+
*       1.8500000000E+01               0
GRID*               7870               0-5.100000000E+012.2392857143E+01+
*       1.8500000000E+01               0
GRID*               7871               0-5.100000000E+012.0357142857E+01+
*       1.8500000000E+01               0
GRID*               7872               0-5.100000000E+011.8321428571E+01+
*       1.8500000000E+01               0
GRID*               7873               0-5.100000000E+011.6285714286E+01+
*       1.8500000000E+01               0
GRID*               7874               0-5.100000000E+011.4250000000E+01+
*       1.8500000000E+01               0
GRID*               7875               0-5.100000000E+011.2214285714E+01+
*       1.8500000000E+01               0
GRID*               7876               0-5.100000000E+011.0178571429E+01+
*       1.8500000000E+01               0
GRID*               7877               0-5.100000000E+018.1428571429E+00+
*       1.8500000000E+01               0
GRID*               7878               0-5.100000000E+016.1071428571E+00+
*       1.8500000000E+01               0
GRID*               7879               0-5.100000000E+014.0714285714E+00+
*       1.8500000000E+01               0
GRID*               7880               0-5.100000000E+012.0357142857E+00+
*       1.8500000000E+01               0
GRID*               7881               0-5.300000000E+012.6464285714E+01+
*       1.8500000000E+01               0
GRID*               7882               0-5.300000000E+012.4428571429E+01+
*       1.8500000000E+01               0
GRID*               7883               0-5.300000000E+012.2392857143E+01+
*       1.8500000000E+01               0
GRID*               7884               0-5.300000000E+012.0357142857E+01+
*       1.8500000000E+01               0
GRID*               7885               0-5.300000000E+011.8321428571E+01+
*       1.8500000000E+01               0
GRID*               7886               0-5.300000000E+011.6285714286E+01+
*       1.8500000000E+01               0
GRID*               7887               0-5.300000000E+011.4250000000E+01+
*       1.8500000000E+01               0
GRID*               7888               0-5.300000000E+011.2214285714E+01+
*       1.8500000000E+01               0
GRID*               7889               0-5.300000000E+011.0178571429E+01+
*       1.8500000000E+01               0
GRID*               7890               0-5.300000000E+018.1428571429E+00+
*       1.8500000000E+01               0
GRID*               7891               0-5.300000000E+016.1071428571E+00+
*       1.8500000000E+01               0
GRID*               7892               0-5.300000000E+014.0714285714E+00+
*       1.8500000000E+01               0
GRID*               7893               0-5.300000000E+012.0357142857E+00+
*       1.8500000000E+01               0
GRID*               7894               0-5.500000000E+012.6464285714E+01+
*       1.8500000000E+01               0
GRID*               7895               0-5.500000000E+012.4428571429E+01+
*       1.8500000000E+01               0
GRID*               7896               0-5.500000000E+012.2392857143E+01+
*       1.8500000000E+01               0
GRID*               7897               0-5.500000000E+012.0357142857E+01+
*       1.8500000000E+01               0
GRID*               7898               0-5.500000000E+011.8321428571E+01+
*       1.8500000000E+01               0
GRID*               7899               0-5.500000000E+011.6285714286E+01+
*       1.8500000000E+01               0
GRID*               7900               0-5.500000000E+011.4250000000E+01+
*       1.8500000000E+01               0
GRID*               7901               0-5.500000000E+011.2214285714E+01+
*       1.8500000000E+01               0
GRID*               7902               0-5.500000000E+011.0178571429E+01+
*       1.8500000000E+01               0
GRID*               7903               0-5.500000000E+018.1428571429E+00+
*       1.8500000000E+01               0
GRID*               7904               0-5.500000000E+016.1071428571E+00+
*       1.8500000000E+01               0
GRID*               7905               0-5.500000000E+014.0714285714E+00+
*       1.8500000000E+01               0
GRID*               7906               0-5.500000000E+012.0357142857E+00+
*       1.8500000000E+01               0
GRID*               7907               0-5.700000000E+012.6464285714E+01+
*       1.8500000000E+01               0
GRID*               7908               0-5.700000000E+012.4428571429E+01+
*       1.8500000000E+01               0
GRID*               7909               0-5.700000000E+012.2392857143E+01+
*       1.8500000000E+01               0
GRID*               7910               0-5.700000000E+012.0357142857E+01+
*       1.8500000000E+01               0
GRID*               7911               0-5.700000000E+011.8321428571E+01+
*       1.8500000000E+01               0
GRID*               7912               0-5.700000000E+011.6285714286E+01+
*       1.8500000000E+01               0
GRID*               7913               0-5.700000000E+011.4250000000E+01+
*       1.8500000000E+01               0
GRID*               7914               0-5.700000000E+011.2214285714E+01+
*       1.8500000000E+01               0
GRID*               7915               0-5.700000000E+011.0178571429E+01+
*       1.8500000000E+01               0
GRID*               7916               0-5.700000000E+018.1428571429E+00+
*       1.8500000000E+01               0
GRID*               7917               0-5.700000000E+016.1071428571E+00+
*       1.8500000000E+01               0
GRID*               7918               0-5.700000000E+014.0714285714E+00+
*       1.8500000000E+01               0
GRID*               7919               0-5.700000000E+012.0357142857E+00+
*       1.8500000000E+01               0
GRID*               7920               0-5.900000000E+012.6464285714E+01+
*       1.8500000000E+01               0
GRID*               7921               0-5.900000000E+012.4428571429E+01+
*       1.8500000000E+01               0
GRID*               7922               0-5.900000000E+012.2392857143E+01+
*       1.8500000000E+01               0
GRID*               7923               0-5.900000000E+012.0357142857E+01+
*       1.8500000000E+01               0
GRID*               7924               0-5.900000000E+011.8321428571E+01+
*       1.8500000000E+01               0
GRID*               7925               0-5.900000000E+011.6285714286E+01+
*       1.8500000000E+01               0
GRID*               7926               0-5.900000000E+011.4250000000E+01+
*       1.8500000000E+01               0
GRID*               7927               0-5.900000000E+011.2214285714E+01+
*       1.8500000000E+01               0
GRID*               7928               0-5.900000000E+011.0178571429E+01+
*       1.8500000000E+01               0
GRID*               7929               0-5.900000000E+018.1428571429E+00+
*       1.8500000000E+01               0
GRID*               7930               0-5.900000000E+016.1071428571E+00+
*       1.8500000000E+01               0
GRID*               7931               0-5.900000000E+014.0714285714E+00+
*       1.8500000000E+01               0
GRID*               7932               0-5.900000000E+012.0357142857E+00+
*       1.8500000000E+01               0
GRID*               7933               0-6.100000000E+012.6464285714E+01+
*       1.8500000000E+01               0
GRID*               7934               0-6.100000000E+012.4428571429E+01+
*       1.8500000000E+01               0
GRID*               7935               0-6.100000000E+012.2392857143E+01+
*       1.8500000000E+01               0
GRID*               7936               0-6.100000000E+012.0357142857E+01+
*       1.8500000000E+01               0
GRID*               7937               0-6.100000000E+011.8321428571E+01+
*       1.8500000000E+01               0
GRID*               7938               0-6.100000000E+011.6285714286E+01+
*       1.8500000000E+01               0
GRID*               7939               0-6.100000000E+011.4250000000E+01+
*       1.8500000000E+01               0
GRID*               7940               0-6.100000000E+011.2214285714E+01+
*       1.8500000000E+01               0
GRID*               7941               0-6.100000000E+011.0178571429E+01+
*       1.8500000000E+01               0
GRID*               7942               0-6.100000000E+018.1428571429E+00+
*       1.8500000000E+01               0
GRID*               7943               0-6.100000000E+016.1071428571E+00+
*       1.8500000000E+01               0
GRID*               7944               0-6.100000000E+014.0714285714E+00+
*       1.8500000000E+01               0
GRID*               7945               0-6.100000000E+012.0357142857E+00+
*       1.8500000000E+01               0
GRID*               7946               0-6.300000000E+012.6464285714E+01+
*       1.8500000000E+01               0
GRID*               7947               0-6.300000000E+012.4428571429E+01+
*       1.8500000000E+01               0
GRID*               7948               0-6.300000000E+012.2392857143E+01+
*       1.8500000000E+01               0
GRID*               7949               0-6.300000000E+012.0357142857E+01+
*       1.8500000000E+01               0
GRID*               7950               0-6.300000000E+011.8321428571E+01+
*       1.8500000000E+01               0
GRID*               7951               0-6.300000000E+011.6285714286E+01+
*       1.8500000000E+01               0
GRID*               7952               0-6.300000000E+011.4250000000E+01+
*       1.8500000000E+01               0
GRID*               7953               0-6.300000000E+011.2214285714E+01+
*       1.8500000000E+01               0
GRID*               7954               0-6.300000000E+011.0178571429E+01+
*       1.8500000000E+01               0
GRID*               7955               0-6.300000000E+018.1428571429E+00+
*       1.8500000000E+01               0
GRID*               7956               0-6.300000000E+016.1071428571E+00+
*       1.8500000000E+01               0
GRID*               7957               0-6.300000000E+014.0714285714E+00+
*       1.8500000000E+01               0
GRID*               7958               0-6.300000000E+012.0357142857E+00+
*       1.8500000000E+01               0
GRID*               7959               0-6.500000000E+012.6464285714E+01+
*       1.8500000000E+01               0
GRID*               7960               0-6.500000000E+012.4428571429E+01+
*       1.8500000000E+01               0
GRID*               7961               0-6.500000000E+012.2392857143E+01+
*       1.8500000000E+01               0
GRID*               7962               0-6.500000000E+012.0357142857E+01+
*       1.8500000000E+01               0
GRID*               7963               0-6.500000000E+011.8321428571E+01+
*       1.8500000000E+01               0
GRID*               7964               0-6.500000000E+011.6285714286E+01+
*       1.8500000000E+01               0
GRID*               7965               0-6.500000000E+011.4250000000E+01+
*       1.8500000000E+01               0
GRID*               7966               0-6.500000000E+011.2214285714E+01+
*       1.8500000000E+01               0
GRID*               7967               0-6.500000000E+011.0178571429E+01+
*       1.8500000000E+01               0
GRID*               7968               0-6.500000000E+018.1428571429E+00+
*       1.8500000000E+01               0
GRID*               7969               0-6.500000000E+016.1071428571E+00+
*       1.8500000000E+01               0
GRID*               7970               0-6.500000000E+014.0714285714E+00+
*       1.8500000000E+01               0
GRID*               7971               0-6.500000000E+012.0357142857E+00+
*       1.8500000000E+01               0
GRID*               7972               0-6.700000000E+012.6464285714E+01+
*       1.8500000000E+01               0
GRID*               7973               0-6.700000000E+012.4428571429E+01+
*       1.8500000000E+01               0
GRID*               7974               0-6.700000000E+012.2392857143E+01+
*       1.8500000000E+01               0
GRID*               7975               0-6.700000000E+012.0357142857E+01+
*       1.8500000000E+01               0
GRID*               7976               0-6.700000000E+011.8321428571E+01+
*       1.8500000000E+01               0
GRID*               7977               0-6.700000000E+011.6285714286E+01+
*       1.8500000000E+01               0
GRID*               7978               0-6.700000000E+011.4250000000E+01+
*       1.8500000000E+01               0
GRID*               7979               0-6.700000000E+011.2214285714E+01+
*       1.8500000000E+01               0
GRID*               7980               0-6.700000000E+011.0178571429E+01+
*       1.8500000000E+01               0
GRID*               7981               0-6.700000000E+018.1428571429E+00+
*       1.8500000000E+01               0
GRID*               7982               0-6.700000000E+016.1071428571E+00+
*       1.8500000000E+01               0
GRID*               7983               0-6.700000000E+014.0714285714E+00+
*       1.8500000000E+01               0
GRID*               7984               0-6.700000000E+012.0357142857E+00+
*       1.8500000000E+01               0
GRID*               7985               0-6.900000000E+012.6464285714E+01+
*       1.8500000000E+01               0
GRID*               7986               0-6.900000000E+012.4428571429E+01+
*       1.8500000000E+01               0
GRID*               7987               0-6.900000000E+012.2392857143E+01+
*       1.8500000000E+01               0
GRID*               7988               0-6.900000000E+012.0357142857E+01+
*       1.8500000000E+01               0
GRID*               7989               0-6.900000000E+011.8321428571E+01+
*       1.8500000000E+01               0
GRID*               7990               0-6.900000000E+011.6285714286E+01+
*       1.8500000000E+01               0
GRID*               7991               0-6.900000000E+011.4250000000E+01+
*       1.8500000000E+01               0
GRID*               7992               0-6.900000000E+011.2214285714E+01+
*       1.8500000000E+01               0
GRID*               7993               0-6.900000000E+011.0178571429E+01+
*       1.8500000000E+01               0
GRID*               7994               0-6.900000000E+018.1428571429E+00+
*       1.8500000000E+01               0
GRID*               7995               0-6.900000000E+016.1071428571E+00+
*       1.8500000000E+01               0
GRID*               7996               0-6.900000000E+014.0714285714E+00+
*       1.8500000000E+01               0
GRID*               7997               0-6.900000000E+012.0357142857E+00+
*       1.8500000000E+01               0
GRID*               7998               0-7.100000000E+012.6464285714E+01+
*       1.8500000000E+01               0
GRID*               7999               0-7.100000000E+012.4428571429E+01+
*       1.8500000000E+01               0
GRID*               8000               0-7.100000000E+012.2392857143E+01+
*       1.8500000000E+01               0
GRID*               8001               0-7.100000000E+012.0357142857E+01+
*       1.8500000000E+01               0
GRID*               8002               0-7.100000000E+011.8321428571E+01+
*       1.8500000000E+01               0
GRID*               8003               0-7.100000000E+011.6285714286E+01+
*       1.8500000000E+01               0
GRID*               8004               0-7.100000000E+011.4250000000E+01+
*       1.8500000000E+01               0
GRID*               8005               0-7.100000000E+011.2214285714E+01+
*       1.8500000000E+01               0
GRID*               8006               0-7.100000000E+011.0178571429E+01+
*       1.8500000000E+01               0
GRID*               8007               0-7.100000000E+018.1428571429E+00+
*       1.8500000000E+01               0
GRID*               8008               0-7.100000000E+016.1071428571E+00+
*       1.8500000000E+01               0
GRID*               8009               0-7.100000000E+014.0714285714E+00+
*       1.8500000000E+01               0
GRID*               8010               0-7.100000000E+012.0357142857E+00+
*       1.8500000000E+01               0
GRID*               8011               0-7.300000000E+012.6464285714E+01+
*       1.8500000000E+01               0
GRID*               8012               0-7.300000000E+012.4428571429E+01+
*       1.8500000000E+01               0
GRID*               8013               0-7.300000000E+012.2392857143E+01+
*       1.8500000000E+01               0
GRID*               8014               0-7.300000000E+012.0357142857E+01+
*       1.8500000000E+01               0
GRID*               8015               0-7.300000000E+011.8321428571E+01+
*       1.8500000000E+01               0
GRID*               8016               0-7.300000000E+011.6285714286E+01+
*       1.8500000000E+01               0
GRID*               8017               0-7.300000000E+011.4250000000E+01+
*       1.8500000000E+01               0
GRID*               8018               0-7.300000000E+011.2214285714E+01+
*       1.8500000000E+01               0
GRID*               8019               0-7.300000000E+011.0178571429E+01+
*       1.8500000000E+01               0
GRID*               8020               0-7.300000000E+018.1428571429E+00+
*       1.8500000000E+01               0
GRID*               8021               0-7.300000000E+016.1071428571E+00+
*       1.8500000000E+01               0
GRID*               8022               0-7.300000000E+014.0714285714E+00+
*       1.8500000000E+01               0
GRID*               8023               0-7.300000000E+012.0357142857E+00+
*       1.8500000000E+01               0
GRID*               8024               07.2000000000E+012.6464285714E+01+
*       1.8500000000E+01               0
GRID*               8025               07.1000000000E+012.5446428571E+01+
*       1.8500000000E+01               0
GRID*               8026               07.2000000000E+012.4428571429E+01+
*       1.8500000000E+01               0
GRID*               8027               07.3000000000E+012.5446428571E+01+
*       1.8500000000E+01               0
GRID*               8028               07.1000000000E+012.3410714286E+01+
*       1.8500000000E+01               0
GRID*               8029               07.2000000000E+012.2392857143E+01+
*       1.8500000000E+01               0
GRID*               8030               07.3000000000E+012.3410714286E+01+
*       1.8500000000E+01               0
GRID*               8031               07.1000000000E+012.1375000000E+01+
*       1.8500000000E+01               0
GRID*               8032               07.2000000000E+012.0357142857E+01+
*       1.8500000000E+01               0
GRID*               8033               07.3000000000E+012.1375000000E+01+
*       1.8500000000E+01               0
GRID*               8034               07.1000000000E+011.9339285714E+01+
*       1.8500000000E+01               0
GRID*               8035               07.2000000000E+011.8321428571E+01+
*       1.8500000000E+01               0
GRID*               8036               07.3000000000E+011.9339285714E+01+
*       1.8500000000E+01               0
GRID*               8037               07.1000000000E+011.7303571429E+01+
*       1.8500000000E+01               0
GRID*               8038               07.2000000000E+011.6285714286E+01+
*       1.8500000000E+01               0
GRID*               8039               07.3000000000E+011.7303571429E+01+
*       1.8500000000E+01               0
GRID*               8040               07.1000000000E+011.5267857143E+01+
*       1.8500000000E+01               0
GRID*               8041               07.2000000000E+011.4250000000E+01+
*       1.8500000000E+01               0
GRID*               8042               07.3000000000E+011.5267857143E+01+
*       1.8500000000E+01               0
GRID*               8043               07.1000000000E+011.3232142857E+01+
*       1.8500000000E+01               0
GRID*               8044               07.2000000000E+011.2214285714E+01+
*       1.8500000000E+01               0
GRID*               8045               07.3000000000E+011.3232142857E+01+
*       1.8500000000E+01               0
GRID*               8046               07.1000000000E+011.1196428571E+01+
*       1.8500000000E+01               0
GRID*               8047               07.2000000000E+011.0178571429E+01+
*       1.8500000000E+01               0
GRID*               8048               07.3000000000E+011.1196428571E+01+
*       1.8500000000E+01               0
GRID*               8049               07.1000000000E+019.1607142857E+00+
*       1.8500000000E+01               0
GRID*               8050               07.2000000000E+018.1428571429E+00+
*       1.8500000000E+01               0
GRID*               8051               07.3000000000E+019.1607142857E+00+
*       1.8500000000E+01               0
GRID*               8052               07.1000000000E+017.1250000000E+00+
*       1.8500000000E+01               0
GRID*               8053               07.2000000000E+016.1071428571E+00+
*       1.8500000000E+01               0
GRID*               8054               07.3000000000E+017.1250000000E+00+
*       1.8500000000E+01               0
GRID*               8055               07.1000000000E+015.0892857143E+00+
*       1.8500000000E+01               0
GRID*               8056               07.2000000000E+014.0714285714E+00+
*       1.8500000000E+01               0
GRID*               8057               07.3000000000E+015.0892857143E+00+
*       1.8500000000E+01               0
GRID*               8058               07.1000000000E+013.0535714286E+00+
*       1.8500000000E+01               0
GRID*               8059               07.2000000000E+012.0357142857E+00+
*       1.8500000000E+01               0
GRID*               8060               07.3000000000E+013.0535714286E+00+
*       1.8500000000E+01               0
GRID*               8061               07.0000000000E+012.6464285714E+01+
*       1.8500000000E+01               0
GRID*               8062               06.9000000000E+012.5446428571E+01+
*       1.8500000000E+01               0
GRID*               8063               07.0000000000E+012.4428571429E+01+
*       1.8500000000E+01               0
GRID*               8064               06.9000000000E+012.3410714286E+01+
*       1.8500000000E+01               0
GRID*               8065               07.0000000000E+012.2392857143E+01+
*       1.8500000000E+01               0
GRID*               8066               06.9000000000E+012.1375000000E+01+
*       1.8500000000E+01               0
GRID*               8067               07.0000000000E+012.0357142857E+01+
*       1.8500000000E+01               0
GRID*               8068               06.9000000000E+011.9339285714E+01+
*       1.8500000000E+01               0
GRID*               8069               07.0000000000E+011.8321428571E+01+
*       1.8500000000E+01               0
GRID*               8070               06.9000000000E+011.7303571429E+01+
*       1.8500000000E+01               0
GRID*               8071               07.0000000000E+011.6285714286E+01+
*       1.8500000000E+01               0
GRID*               8072               06.9000000000E+011.5267857143E+01+
*       1.8500000000E+01               0
GRID*               8073               07.0000000000E+011.4250000000E+01+
*       1.8500000000E+01               0
GRID*               8074               06.9000000000E+011.3232142857E+01+
*       1.8500000000E+01               0
GRID*               8075               07.0000000000E+011.2214285714E+01+
*       1.8500000000E+01               0
GRID*               8076               06.9000000000E+011.1196428571E+01+
*       1.8500000000E+01               0
GRID*               8077               07.0000000000E+011.0178571429E+01+
*       1.8500000000E+01               0
GRID*               8078               06.9000000000E+019.1607142857E+00+
*       1.8500000000E+01               0
GRID*               8079               07.0000000000E+018.1428571429E+00+
*       1.8500000000E+01               0
GRID*               8080               06.9000000000E+017.1250000000E+00+
*       1.8500000000E+01               0
GRID*               8081               07.0000000000E+016.1071428571E+00+
*       1.8500000000E+01               0
GRID*               8082               06.9000000000E+015.0892857143E+00+
*       1.8500000000E+01               0
GRID*               8083               07.0000000000E+014.0714285714E+00+
*       1.8500000000E+01               0
GRID*               8084               06.9000000000E+013.0535714286E+00+
*       1.8500000000E+01               0
GRID*               8085               07.0000000000E+012.0357142857E+00+
*       1.8500000000E+01               0
GRID*               8086               06.8000000000E+012.6464285714E+01+
*       1.8500000000E+01               0
GRID*               8087               06.7000000000E+012.5446428571E+01+
*       1.8500000000E+01               0
GRID*               8088               06.8000000000E+012.4428571429E+01+
*       1.8500000000E+01               0
GRID*               8089               06.7000000000E+012.3410714286E+01+
*       1.8500000000E+01               0
GRID*               8090               06.8000000000E+012.2392857143E+01+
*       1.8500000000E+01               0
GRID*               8091               06.7000000000E+012.1375000000E+01+
*       1.8500000000E+01               0
GRID*               8092               06.8000000000E+012.0357142857E+01+
*       1.8500000000E+01               0
GRID*               8093               06.7000000000E+011.9339285714E+01+
*       1.8500000000E+01               0
GRID*               8094               06.8000000000E+011.8321428571E+01+
*       1.8500000000E+01               0
GRID*               8095               06.7000000000E+011.7303571429E+01+
*       1.8500000000E+01               0
GRID*               8096               06.8000000000E+011.6285714286E+01+
*       1.8500000000E+01               0
GRID*               8097               06.7000000000E+011.5267857143E+01+
*       1.8500000000E+01               0
GRID*               8098               06.8000000000E+011.4250000000E+01+
*       1.8500000000E+01               0
GRID*               8099               06.7000000000E+011.3232142857E+01+
*       1.8500000000E+01               0
GRID*               8100               06.8000000000E+011.2214285714E+01+
*       1.8500000000E+01               0
GRID*               8101               06.7000000000E+011.1196428571E+01+
*       1.8500000000E+01               0
GRID*               8102               06.8000000000E+011.0178571429E+01+
*       1.8500000000E+01               0
GRID*               8103               06.7000000000E+019.1607142857E+00+
*       1.8500000000E+01               0
GRID*               8104               06.8000000000E+018.1428571429E+00+
*       1.8500000000E+01               0
GRID*               8105               06.7000000000E+017.1250000000E+00+
*       1.8500000000E+01               0
GRID*               8106               06.8000000000E+016.1071428571E+00+
*       1.8500000000E+01               0
GRID*               8107               06.7000000000E+015.0892857143E+00+
*       1.8500000000E+01               0
GRID*               8108               06.8000000000E+014.0714285714E+00+
*       1.8500000000E+01               0
GRID*               8109               06.7000000000E+013.0535714286E+00+
*       1.8500000000E+01               0
GRID*               8110               06.8000000000E+012.0357142857E+00+
*       1.8500000000E+01               0
GRID*               8111               06.6000000000E+012.6464285714E+01+
*       1.8500000000E+01               0
GRID*               8112               06.5000000000E+012.5446428571E+01+
*       1.8500000000E+01               0
GRID*               8113               06.6000000000E+012.4428571429E+01+
*       1.8500000000E+01               0
GRID*               8114               06.5000000000E+012.3410714286E+01+
*       1.8500000000E+01               0
GRID*               8115               06.6000000000E+012.2392857143E+01+
*       1.8500000000E+01               0
GRID*               8116               06.5000000000E+012.1375000000E+01+
*       1.8500000000E+01               0
GRID*               8117               06.6000000000E+012.0357142857E+01+
*       1.8500000000E+01               0
GRID*               8118               06.5000000000E+011.9339285714E+01+
*       1.8500000000E+01               0
GRID*               8119               06.6000000000E+011.8321428571E+01+
*       1.8500000000E+01               0
GRID*               8120               06.5000000000E+011.7303571429E+01+
*       1.8500000000E+01               0
GRID*               8121               06.6000000000E+011.6285714286E+01+
*       1.8500000000E+01               0
GRID*               8122               06.5000000000E+011.5267857143E+01+
*       1.8500000000E+01               0
GRID*               8123               06.6000000000E+011.4250000000E+01+
*       1.8500000000E+01               0
GRID*               8124               06.5000000000E+011.3232142857E+01+
*       1.8500000000E+01               0
GRID*               8125               06.6000000000E+011.2214285714E+01+
*       1.8500000000E+01               0
GRID*               8126               06.5000000000E+011.1196428571E+01+
*       1.8500000000E+01               0
GRID*               8127               06.6000000000E+011.0178571429E+01+
*       1.8500000000E+01               0
GRID*               8128               06.5000000000E+019.1607142857E+00+
*       1.8500000000E+01               0
GRID*               8129               06.6000000000E+018.1428571429E+00+
*       1.8500000000E+01               0
GRID*               8130               06.5000000000E+017.1250000000E+00+
*       1.8500000000E+01               0
GRID*               8131               06.6000000000E+016.1071428571E+00+
*       1.8500000000E+01               0
GRID*               8132               06.5000000000E+015.0892857143E+00+
*       1.8500000000E+01               0
GRID*               8133               06.6000000000E+014.0714285714E+00+
*       1.8500000000E+01               0
GRID*               8134               06.5000000000E+013.0535714286E+00+
*       1.8500000000E+01               0
GRID*               8135               06.6000000000E+012.0357142857E+00+
*       1.8500000000E+01               0
GRID*               8136               06.4000000000E+012.6464285714E+01+
*       1.8500000000E+01               0
GRID*               8137               06.3000000000E+012.5446428571E+01+
*       1.8500000000E+01               0
GRID*               8138               06.4000000000E+012.4428571429E+01+
*       1.8500000000E+01               0
GRID*               8139               06.3000000000E+012.3410714286E+01+
*       1.8500000000E+01               0
GRID*               8140               06.4000000000E+012.2392857143E+01+
*       1.8500000000E+01               0
GRID*               8141               06.3000000000E+012.1375000000E+01+
*       1.8500000000E+01               0
GRID*               8142               06.4000000000E+012.0357142857E+01+
*       1.8500000000E+01               0
GRID*               8143               06.3000000000E+011.9339285714E+01+
*       1.8500000000E+01               0
GRID*               8144               06.4000000000E+011.8321428571E+01+
*       1.8500000000E+01               0
GRID*               8145               06.3000000000E+011.7303571429E+01+
*       1.8500000000E+01               0
GRID*               8146               06.4000000000E+011.6285714286E+01+
*       1.8500000000E+01               0
GRID*               8147               06.3000000000E+011.5267857143E+01+
*       1.8500000000E+01               0
GRID*               8148               06.4000000000E+011.4250000000E+01+
*       1.8500000000E+01               0
GRID*               8149               06.3000000000E+011.3232142857E+01+
*       1.8500000000E+01               0
GRID*               8150               06.4000000000E+011.2214285714E+01+
*       1.8500000000E+01               0
GRID*               8151               06.3000000000E+011.1196428571E+01+
*       1.8500000000E+01               0
GRID*               8152               06.4000000000E+011.0178571429E+01+
*       1.8500000000E+01               0
GRID*               8153               06.3000000000E+019.1607142857E+00+
*       1.8500000000E+01               0
GRID*               8154               06.4000000000E+018.1428571429E+00+
*       1.8500000000E+01               0
GRID*               8155               06.3000000000E+017.1250000000E+00+
*       1.8500000000E+01               0
GRID*               8156               06.4000000000E+016.1071428571E+00+
*       1.8500000000E+01               0
GRID*               8157               06.3000000000E+015.0892857143E+00+
*       1.8500000000E+01               0
GRID*               8158               06.4000000000E+014.0714285714E+00+
*       1.8500000000E+01               0
GRID*               8159               06.3000000000E+013.0535714286E+00+
*       1.8500000000E+01               0
GRID*               8160               06.4000000000E+012.0357142857E+00+
*       1.8500000000E+01               0
GRID*               8161               06.2000000000E+012.6464285714E+01+
*       1.8500000000E+01               0
GRID*               8162               06.1000000000E+012.5446428571E+01+
*       1.8500000000E+01               0
GRID*               8163               06.2000000000E+012.4428571429E+01+
*       1.8500000000E+01               0
GRID*               8164               06.1000000000E+012.3410714286E+01+
*       1.8500000000E+01               0
GRID*               8165               06.2000000000E+012.2392857143E+01+
*       1.8500000000E+01               0
GRID*               8166               06.1000000000E+012.1375000000E+01+
*       1.8500000000E+01               0
GRID*               8167               06.2000000000E+012.0357142857E+01+
*       1.8500000000E+01               0
GRID*               8168               06.1000000000E+011.9339285714E+01+
*       1.8500000000E+01               0
GRID*               8169               06.2000000000E+011.8321428571E+01+
*       1.8500000000E+01               0
GRID*               8170               06.1000000000E+011.7303571429E+01+
*       1.8500000000E+01               0
GRID*               8171               06.2000000000E+011.6285714286E+01+
*       1.8500000000E+01               0
GRID*               8172               06.1000000000E+011.5267857143E+01+
*       1.8500000000E+01               0
GRID*               8173               06.2000000000E+011.4250000000E+01+
*       1.8500000000E+01               0
GRID*               8174               06.1000000000E+011.3232142857E+01+
*       1.8500000000E+01               0
GRID*               8175               06.2000000000E+011.2214285714E+01+
*       1.8500000000E+01               0
GRID*               8176               06.1000000000E+011.1196428571E+01+
*       1.8500000000E+01               0
GRID*               8177               06.2000000000E+011.0178571429E+01+
*       1.8500000000E+01               0
GRID*               8178               06.1000000000E+019.1607142857E+00+
*       1.8500000000E+01               0
GRID*               8179               06.2000000000E+018.1428571429E+00+
*       1.8500000000E+01               0
GRID*               8180               06.1000000000E+017.1250000000E+00+
*       1.8500000000E+01               0
GRID*               8181               06.2000000000E+016.1071428571E+00+
*       1.8500000000E+01               0
GRID*               8182               06.1000000000E+015.0892857143E+00+
*       1.8500000000E+01               0
GRID*               8183               06.2000000000E+014.0714285714E+00+
*       1.8500000000E+01               0
GRID*               8184               06.1000000000E+013.0535714286E+00+
*       1.8500000000E+01               0
GRID*               8185               06.2000000000E+012.0357142857E+00+
*       1.8500000000E+01               0
GRID*               8186               06.0000000000E+012.6464285714E+01+
*       1.8500000000E+01               0
GRID*               8187               05.9000000000E+012.5446428571E+01+
*       1.8500000000E+01               0
GRID*               8188               06.0000000000E+012.4428571429E+01+
*       1.8500000000E+01               0
GRID*               8189               05.9000000000E+012.3410714286E+01+
*       1.8500000000E+01               0
GRID*               8190               06.0000000000E+012.2392857143E+01+
*       1.8500000000E+01               0
GRID*               8191               05.9000000000E+012.1375000000E+01+
*       1.8500000000E+01               0
GRID*               8192               06.0000000000E+012.0357142857E+01+
*       1.8500000000E+01               0
GRID*               8193               05.9000000000E+011.9339285714E+01+
*       1.8500000000E+01               0
GRID*               8194               06.0000000000E+011.8321428571E+01+
*       1.8500000000E+01               0
GRID*               8195               05.9000000000E+011.7303571429E+01+
*       1.8500000000E+01               0
GRID*               8196               06.0000000000E+011.6285714286E+01+
*       1.8500000000E+01               0
GRID*               8197               05.9000000000E+011.5267857143E+01+
*       1.8500000000E+01               0
GRID*               8198               06.0000000000E+011.4250000000E+01+
*       1.8500000000E+01               0
GRID*               8199               05.9000000000E+011.3232142857E+01+
*       1.8500000000E+01               0
GRID*               8200               06.0000000000E+011.2214285714E+01+
*       1.8500000000E+01               0
GRID*               8201               05.9000000000E+011.1196428571E+01+
*       1.8500000000E+01               0
GRID*               8202               06.0000000000E+011.0178571429E+01+
*       1.8500000000E+01               0
GRID*               8203               05.9000000000E+019.1607142857E+00+
*       1.8500000000E+01               0
GRID*               8204               06.0000000000E+018.1428571429E+00+
*       1.8500000000E+01               0
GRID*               8205               05.9000000000E+017.1250000000E+00+
*       1.8500000000E+01               0
GRID*               8206               06.0000000000E+016.1071428571E+00+
*       1.8500000000E+01               0
GRID*               8207               05.9000000000E+015.0892857143E+00+
*       1.8500000000E+01               0
GRID*               8208               06.0000000000E+014.0714285714E+00+
*       1.8500000000E+01               0
GRID*               8209               05.9000000000E+013.0535714286E+00+
*       1.8500000000E+01               0
GRID*               8210               06.0000000000E+012.0357142857E+00+
*       1.8500000000E+01               0
GRID*               8211               05.8000000000E+012.6464285714E+01+
*       1.8500000000E+01               0
GRID*               8212               05.7000000000E+012.5446428571E+01+
*       1.8500000000E+01               0
GRID*               8213               05.8000000000E+012.4428571429E+01+
*       1.8500000000E+01               0
GRID*               8214               05.7000000000E+012.3410714286E+01+
*       1.8500000000E+01               0
GRID*               8215               05.8000000000E+012.2392857143E+01+
*       1.8500000000E+01               0
GRID*               8216               05.7000000000E+012.1375000000E+01+
*       1.8500000000E+01               0
GRID*               8217               05.8000000000E+012.0357142857E+01+
*       1.8500000000E+01               0
GRID*               8218               05.7000000000E+011.9339285714E+01+
*       1.8500000000E+01               0
GRID*               8219               05.8000000000E+011.8321428571E+01+
*       1.8500000000E+01               0
GRID*               8220               05.7000000000E+011.7303571429E+01+
*       1.8500000000E+01               0
GRID*               8221               05.8000000000E+011.6285714286E+01+
*       1.8500000000E+01               0
GRID*               8222               05.7000000000E+011.5267857143E+01+
*       1.8500000000E+01               0
GRID*               8223               05.8000000000E+011.4250000000E+01+
*       1.8500000000E+01               0
GRID*               8224               05.7000000000E+011.3232142857E+01+
*       1.8500000000E+01               0
GRID*               8225               05.8000000000E+011.2214285714E+01+
*       1.8500000000E+01               0
GRID*               8226               05.7000000000E+011.1196428571E+01+
*       1.8500000000E+01               0
GRID*               8227               05.8000000000E+011.0178571429E+01+
*       1.8500000000E+01               0
GRID*               8228               05.7000000000E+019.1607142857E+00+
*       1.8500000000E+01               0
GRID*               8229               05.8000000000E+018.1428571429E+00+
*       1.8500000000E+01               0
GRID*               8230               05.7000000000E+017.1250000000E+00+
*       1.8500000000E+01               0
GRID*               8231               05.8000000000E+016.1071428571E+00+
*       1.8500000000E+01               0
GRID*               8232               05.7000000000E+015.0892857143E+00+
*       1.8500000000E+01               0
GRID*               8233               05.8000000000E+014.0714285714E+00+
*       1.8500000000E+01               0
GRID*               8234               05.7000000000E+013.0535714286E+00+
*       1.8500000000E+01               0
GRID*               8235               05.8000000000E+012.0357142857E+00+
*       1.8500000000E+01               0
GRID*               8236               05.6000000000E+012.6464285714E+01+
*       1.8500000000E+01               0
GRID*               8237               05.5000000000E+012.5446428571E+01+
*       1.8500000000E+01               0
GRID*               8238               05.6000000000E+012.4428571429E+01+
*       1.8500000000E+01               0
GRID*               8239               05.5000000000E+012.3410714286E+01+
*       1.8500000000E+01               0
GRID*               8240               05.6000000000E+012.2392857143E+01+
*       1.8500000000E+01               0
GRID*               8241               05.5000000000E+012.1375000000E+01+
*       1.8500000000E+01               0
GRID*               8242               05.6000000000E+012.0357142857E+01+
*       1.8500000000E+01               0
GRID*               8243               05.5000000000E+011.9339285714E+01+
*       1.8500000000E+01               0
GRID*               8244               05.6000000000E+011.8321428571E+01+
*       1.8500000000E+01               0
GRID*               8245               05.5000000000E+011.7303571429E+01+
*       1.8500000000E+01               0
GRID*               8246               05.6000000000E+011.6285714286E+01+
*       1.8500000000E+01               0
GRID*               8247               05.5000000000E+011.5267857143E+01+
*       1.8500000000E+01               0
GRID*               8248               05.6000000000E+011.4250000000E+01+
*       1.8500000000E+01               0
GRID*               8249               05.5000000000E+011.3232142857E+01+
*       1.8500000000E+01               0
GRID*               8250               05.6000000000E+011.2214285714E+01+
*       1.8500000000E+01               0
GRID*               8251               05.5000000000E+011.1196428571E+01+
*       1.8500000000E+01               0
GRID*               8252               05.6000000000E+011.0178571429E+01+
*       1.8500000000E+01               0
GRID*               8253               05.5000000000E+019.1607142857E+00+
*       1.8500000000E+01               0
GRID*               8254               05.6000000000E+018.1428571429E+00+
*       1.8500000000E+01               0
GRID*               8255               05.5000000000E+017.1250000000E+00+
*       1.8500000000E+01               0
GRID*               8256               05.6000000000E+016.1071428571E+00+
*       1.8500000000E+01               0
GRID*               8257               05.5000000000E+015.0892857143E+00+
*       1.8500000000E+01               0
GRID*               8258               05.6000000000E+014.0714285714E+00+
*       1.8500000000E+01               0
GRID*               8259               05.5000000000E+013.0535714286E+00+
*       1.8500000000E+01               0
GRID*               8260               05.6000000000E+012.0357142857E+00+
*       1.8500000000E+01               0
GRID*               8261               05.4000000000E+012.6464285714E+01+
*       1.8500000000E+01               0
GRID*               8262               05.3000000000E+012.5446428571E+01+
*       1.8500000000E+01               0
GRID*               8263               05.4000000000E+012.4428571429E+01+
*       1.8500000000E+01               0
GRID*               8264               05.3000000000E+012.3410714286E+01+
*       1.8500000000E+01               0
GRID*               8265               05.4000000000E+012.2392857143E+01+
*       1.8500000000E+01               0
GRID*               8266               05.3000000000E+012.1375000000E+01+
*       1.8500000000E+01               0
GRID*               8267               05.4000000000E+012.0357142857E+01+
*       1.8500000000E+01               0
GRID*               8268               05.3000000000E+011.9339285714E+01+
*       1.8500000000E+01               0
GRID*               8269               05.4000000000E+011.8321428571E+01+
*       1.8500000000E+01               0
GRID*               8270               05.3000000000E+011.7303571429E+01+
*       1.8500000000E+01               0
GRID*               8271               05.4000000000E+011.6285714286E+01+
*       1.8500000000E+01               0
GRID*               8272               05.3000000000E+011.5267857143E+01+
*       1.8500000000E+01               0
GRID*               8273               05.4000000000E+011.4250000000E+01+
*       1.8500000000E+01               0
GRID*               8274               05.3000000000E+011.3232142857E+01+
*       1.8500000000E+01               0
GRID*               8275               05.4000000000E+011.2214285714E+01+
*       1.8500000000E+01               0
GRID*               8276               05.3000000000E+011.1196428571E+01+
*       1.8500000000E+01               0
GRID*               8277               05.4000000000E+011.0178571429E+01+
*       1.8500000000E+01               0
GRID*               8278               05.3000000000E+019.1607142857E+00+
*       1.8500000000E+01               0
GRID*               8279               05.4000000000E+018.1428571429E+00+
*       1.8500000000E+01               0
GRID*               8280               05.3000000000E+017.1250000000E+00+
*       1.8500000000E+01               0
GRID*               8281               05.4000000000E+016.1071428571E+00+
*       1.8500000000E+01               0
GRID*               8282               05.3000000000E+015.0892857143E+00+
*       1.8500000000E+01               0
GRID*               8283               05.4000000000E+014.0714285714E+00+
*       1.8500000000E+01               0
GRID*               8284               05.3000000000E+013.0535714286E+00+
*       1.8500000000E+01               0
GRID*               8285               05.4000000000E+012.0357142857E+00+
*       1.8500000000E+01               0
GRID*               8286               05.2000000000E+012.6464285714E+01+
*       1.8500000000E+01               0
GRID*               8287               05.1000000000E+012.5446428571E+01+
*       1.8500000000E+01               0
GRID*               8288               05.2000000000E+012.4428571429E+01+
*       1.8500000000E+01               0
GRID*               8289               05.1000000000E+012.3410714286E+01+
*       1.8500000000E+01               0
GRID*               8290               05.2000000000E+012.2392857143E+01+
*       1.8500000000E+01               0
GRID*               8291               05.1000000000E+012.1375000000E+01+
*       1.8500000000E+01               0
GRID*               8292               05.2000000000E+012.0357142857E+01+
*       1.8500000000E+01               0
GRID*               8293               05.1000000000E+011.9339285714E+01+
*       1.8500000000E+01               0
GRID*               8294               05.2000000000E+011.8321428571E+01+
*       1.8500000000E+01               0
GRID*               8295               05.1000000000E+011.7303571429E+01+
*       1.8500000000E+01               0
GRID*               8296               05.2000000000E+011.6285714286E+01+
*       1.8500000000E+01               0
GRID*               8297               05.1000000000E+011.5267857143E+01+
*       1.8500000000E+01               0
GRID*               8298               05.2000000000E+011.4250000000E+01+
*       1.8500000000E+01               0
GRID*               8299               05.1000000000E+011.3232142857E+01+
*       1.8500000000E+01               0
GRID*               8300               05.2000000000E+011.2214285714E+01+
*       1.8500000000E+01               0
GRID*               8301               05.1000000000E+011.1196428571E+01+
*       1.8500000000E+01               0
GRID*               8302               05.2000000000E+011.0178571429E+01+
*       1.8500000000E+01               0
GRID*               8303               05.1000000000E+019.1607142857E+00+
*       1.8500000000E+01               0
GRID*               8304               05.2000000000E+018.1428571429E+00+
*       1.8500000000E+01               0
GRID*               8305               05.1000000000E+017.1250000000E+00+
*       1.8500000000E+01               0
GRID*               8306               05.2000000000E+016.1071428571E+00+
*       1.8500000000E+01               0
GRID*               8307               05.1000000000E+015.0892857143E+00+
*       1.8500000000E+01               0
GRID*               8308               05.2000000000E+014.0714285714E+00+
*       1.8500000000E+01               0
GRID*               8309               05.1000000000E+013.0535714286E+00+
*       1.8500000000E+01               0
GRID*               8310               05.2000000000E+012.0357142857E+00+
*       1.8500000000E+01               0
GRID*               8311               05.0000000000E+012.6464285714E+01+
*       1.8500000000E+01               0
GRID*               8312               04.9000000000E+012.5446428571E+01+
*       1.8500000000E+01               0
GRID*               8313               05.0000000000E+012.4428571429E+01+
*       1.8500000000E+01               0
GRID*               8314               04.9000000000E+012.3410714286E+01+
*       1.8500000000E+01               0
GRID*               8315               05.0000000000E+012.2392857143E+01+
*       1.8500000000E+01               0
GRID*               8316               04.9000000000E+012.1375000000E+01+
*       1.8500000000E+01               0
GRID*               8317               05.0000000000E+012.0357142857E+01+
*       1.8500000000E+01               0
GRID*               8318               04.9000000000E+011.9339285714E+01+
*       1.8500000000E+01               0
GRID*               8319               05.0000000000E+011.8321428571E+01+
*       1.8500000000E+01               0
GRID*               8320               04.9000000000E+011.7303571429E+01+
*       1.8500000000E+01               0
GRID*               8321               05.0000000000E+011.6285714286E+01+
*       1.8500000000E+01               0
GRID*               8322               04.9000000000E+011.5267857143E+01+
*       1.8500000000E+01               0
GRID*               8323               05.0000000000E+011.4250000000E+01+
*       1.8500000000E+01               0
GRID*               8324               04.9000000000E+011.3232142857E+01+
*       1.8500000000E+01               0
GRID*               8325               05.0000000000E+011.2214285714E+01+
*       1.8500000000E+01               0
GRID*               8326               04.9000000000E+011.1196428571E+01+
*       1.8500000000E+01               0
GRID*               8327               05.0000000000E+011.0178571429E+01+
*       1.8500000000E+01               0
GRID*               8328               04.9000000000E+019.1607142857E+00+
*       1.8500000000E+01               0
GRID*               8329               05.0000000000E+018.1428571429E+00+
*       1.8500000000E+01               0
GRID*               8330               04.9000000000E+017.1250000000E+00+
*       1.8500000000E+01               0
GRID*               8331               05.0000000000E+016.1071428571E+00+
*       1.8500000000E+01               0
GRID*               8332               04.9000000000E+015.0892857143E+00+
*       1.8500000000E+01               0
GRID*               8333               05.0000000000E+014.0714285714E+00+
*       1.8500000000E+01               0
GRID*               8334               04.9000000000E+013.0535714286E+00+
*       1.8500000000E+01               0
GRID*               8335               05.0000000000E+012.0357142857E+00+
*       1.8500000000E+01               0
GRID*               8336               04.8000000000E+012.6464285714E+01+
*       1.8500000000E+01               0
GRID*               8337               04.7000000000E+012.5446428571E+01+
*       1.8500000000E+01               0
GRID*               8338               04.8000000000E+012.4428571429E+01+
*       1.8500000000E+01               0
GRID*               8339               04.7000000000E+012.3410714286E+01+
*       1.8500000000E+01               0
GRID*               8340               04.8000000000E+012.2392857143E+01+
*       1.8500000000E+01               0
GRID*               8341               04.7000000000E+012.1375000000E+01+
*       1.8500000000E+01               0
GRID*               8342               04.8000000000E+012.0357142857E+01+
*       1.8500000000E+01               0
GRID*               8343               04.7000000000E+011.9339285714E+01+
*       1.8500000000E+01               0
GRID*               8344               04.8000000000E+011.8321428571E+01+
*       1.8500000000E+01               0
GRID*               8345               04.7000000000E+011.7303571429E+01+
*       1.8500000000E+01               0
GRID*               8346               04.8000000000E+011.6285714286E+01+
*       1.8500000000E+01               0
GRID*               8347               04.7000000000E+011.5267857143E+01+
*       1.8500000000E+01               0
GRID*               8348               04.8000000000E+011.4250000000E+01+
*       1.8500000000E+01               0
GRID*               8349               04.7000000000E+011.3232142857E+01+
*       1.8500000000E+01               0
GRID*               8350               04.8000000000E+011.2214285714E+01+
*       1.8500000000E+01               0
GRID*               8351               04.7000000000E+011.1196428571E+01+
*       1.8500000000E+01               0
GRID*               8352               04.8000000000E+011.0178571429E+01+
*       1.8500000000E+01               0
GRID*               8353               04.7000000000E+019.1607142857E+00+
*       1.8500000000E+01               0
GRID*               8354               04.8000000000E+018.1428571429E+00+
*       1.8500000000E+01               0
GRID*               8355               04.7000000000E+017.1250000000E+00+
*       1.8500000000E+01               0
GRID*               8356               04.8000000000E+016.1071428571E+00+
*       1.8500000000E+01               0
GRID*               8357               04.7000000000E+015.0892857143E+00+
*       1.8500000000E+01               0
GRID*               8358               04.8000000000E+014.0714285714E+00+
*       1.8500000000E+01               0
GRID*               8359               04.7000000000E+013.0535714286E+00+
*       1.8500000000E+01               0
GRID*               8360               04.8000000000E+012.0357142857E+00+
*       1.8500000000E+01               0
GRID*               8361               04.6000000000E+012.6464285714E+01+
*       1.8500000000E+01               0
GRID*               8362               04.5000000000E+012.5446428571E+01+
*       1.8500000000E+01               0
GRID*               8363               04.6000000000E+012.4428571429E+01+
*       1.8500000000E+01               0
GRID*               8364               04.5000000000E+012.3410714286E+01+
*       1.8500000000E+01               0
GRID*               8365               04.6000000000E+012.2392857143E+01+
*       1.8500000000E+01               0
GRID*               8366               04.5000000000E+012.1375000000E+01+
*       1.8500000000E+01               0
GRID*               8367               04.6000000000E+012.0357142857E+01+
*       1.8500000000E+01               0
GRID*               8368               04.5000000000E+011.9339285714E+01+
*       1.8500000000E+01               0
GRID*               8369               04.6000000000E+011.8321428571E+01+
*       1.8500000000E+01               0
GRID*               8370               04.5000000000E+011.7303571429E+01+
*       1.8500000000E+01               0
GRID*               8371               04.6000000000E+011.6285714286E+01+
*       1.8500000000E+01               0
GRID*               8372               04.5000000000E+011.5267857143E+01+
*       1.8500000000E+01               0
GRID*               8373               04.6000000000E+011.4250000000E+01+
*       1.8500000000E+01               0
GRID*               8374               04.5000000000E+011.3232142857E+01+
*       1.8500000000E+01               0
GRID*               8375               04.6000000000E+011.2214285714E+01+
*       1.8500000000E+01               0
GRID*               8376               04.5000000000E+011.1196428571E+01+
*       1.8500000000E+01               0
GRID*               8377               04.6000000000E+011.0178571429E+01+
*       1.8500000000E+01               0
GRID*               8378               04.5000000000E+019.1607142857E+00+
*       1.8500000000E+01               0
GRID*               8379               04.6000000000E+018.1428571429E+00+
*       1.8500000000E+01               0
GRID*               8380               04.5000000000E+017.1250000000E+00+
*       1.8500000000E+01               0
GRID*               8381               04.6000000000E+016.1071428571E+00+
*       1.8500000000E+01               0
GRID*               8382               04.5000000000E+015.0892857143E+00+
*       1.8500000000E+01               0
GRID*               8383               04.6000000000E+014.0714285714E+00+
*       1.8500000000E+01               0
GRID*               8384               04.5000000000E+013.0535714286E+00+
*       1.8500000000E+01               0
GRID*               8385               04.6000000000E+012.0357142857E+00+
*       1.8500000000E+01               0
GRID*               8386               04.4000000000E+012.6464285714E+01+
*       1.8500000000E+01               0
GRID*               8387               04.3000000000E+012.5446428571E+01+
*       1.8500000000E+01               0
GRID*               8388               04.4000000000E+012.4428571429E+01+
*       1.8500000000E+01               0
GRID*               8389               04.3000000000E+012.3410714286E+01+
*       1.8500000000E+01               0
GRID*               8390               04.4000000000E+012.2392857143E+01+
*       1.8500000000E+01               0
GRID*               8391               04.3000000000E+012.1375000000E+01+
*       1.8500000000E+01               0
GRID*               8392               04.4000000000E+012.0357142857E+01+
*       1.8500000000E+01               0
GRID*               8393               04.3000000000E+011.9339285714E+01+
*       1.8500000000E+01               0
GRID*               8394               04.4000000000E+011.8321428571E+01+
*       1.8500000000E+01               0
GRID*               8395               04.3000000000E+011.7303571429E+01+
*       1.8500000000E+01               0
GRID*               8396               04.4000000000E+011.6285714286E+01+
*       1.8500000000E+01               0
GRID*               8397               04.3000000000E+011.5267857143E+01+
*       1.8500000000E+01               0
GRID*               8398               04.4000000000E+011.4250000000E+01+
*       1.8500000000E+01               0
GRID*               8399               04.3000000000E+011.3232142857E+01+
*       1.8500000000E+01               0
GRID*               8400               04.4000000000E+011.2214285714E+01+
*       1.8500000000E+01               0
GRID*               8401               04.3000000000E+011.1196428571E+01+
*       1.8500000000E+01               0
GRID*               8402               04.4000000000E+011.0178571429E+01+
*       1.8500000000E+01               0
GRID*               8403               04.3000000000E+019.1607142857E+00+
*       1.8500000000E+01               0
GRID*               8404               04.4000000000E+018.1428571429E+00+
*       1.8500000000E+01               0
GRID*               8405               04.3000000000E+017.1250000000E+00+
*       1.8500000000E+01               0
GRID*               8406               04.4000000000E+016.1071428571E+00+
*       1.8500000000E+01               0
GRID*               8407               04.3000000000E+015.0892857143E+00+
*       1.8500000000E+01               0
GRID*               8408               04.4000000000E+014.0714285714E+00+
*       1.8500000000E+01               0
GRID*               8409               04.3000000000E+013.0535714286E+00+
*       1.8500000000E+01               0
GRID*               8410               04.4000000000E+012.0357142857E+00+
*       1.8500000000E+01               0
GRID*               8411               04.2000000000E+012.6464285714E+01+
*       1.8500000000E+01               0
GRID*               8412               04.1000000000E+012.5446428571E+01+
*       1.8500000000E+01               0
GRID*               8413               04.2000000000E+012.4428571429E+01+
*       1.8500000000E+01               0
GRID*               8414               04.1000000000E+012.3410714286E+01+
*       1.8500000000E+01               0
GRID*               8415               04.2000000000E+012.2392857143E+01+
*       1.8500000000E+01               0
GRID*               8416               04.1000000000E+012.1375000000E+01+
*       1.8500000000E+01               0
GRID*               8417               04.2000000000E+012.0357142857E+01+
*       1.8500000000E+01               0
GRID*               8418               04.1000000000E+011.9339285714E+01+
*       1.8500000000E+01               0
GRID*               8419               04.2000000000E+011.8321428571E+01+
*       1.8500000000E+01               0
GRID*               8420               04.1000000000E+011.7303571429E+01+
*       1.8500000000E+01               0
GRID*               8421               04.2000000000E+011.6285714286E+01+
*       1.8500000000E+01               0
GRID*               8422               04.1000000000E+011.5267857143E+01+
*       1.8500000000E+01               0
GRID*               8423               04.2000000000E+011.4250000000E+01+
*       1.8500000000E+01               0
GRID*               8424               04.1000000000E+011.3232142857E+01+
*       1.8500000000E+01               0
GRID*               8425               04.2000000000E+011.2214285714E+01+
*       1.8500000000E+01               0
GRID*               8426               04.1000000000E+011.1196428571E+01+
*       1.8500000000E+01               0
GRID*               8427               04.2000000000E+011.0178571429E+01+
*       1.8500000000E+01               0
GRID*               8428               04.1000000000E+019.1607142857E+00+
*       1.8500000000E+01               0
GRID*               8429               04.2000000000E+018.1428571429E+00+
*       1.8500000000E+01               0
GRID*               8430               04.1000000000E+017.1250000000E+00+
*       1.8500000000E+01               0
GRID*               8431               04.2000000000E+016.1071428571E+00+
*       1.8500000000E+01               0
GRID*               8432               04.1000000000E+015.0892857143E+00+
*       1.8500000000E+01               0
GRID*               8433               04.2000000000E+014.0714285714E+00+
*       1.8500000000E+01               0
GRID*               8434               04.1000000000E+013.0535714286E+00+
*       1.8500000000E+01               0
GRID*               8435               04.2000000000E+012.0357142857E+00+
*       1.8500000000E+01               0
GRID*               8436               04.0000000000E+012.6464285714E+01+
*       1.8500000000E+01               0
GRID*               8437               03.9000000000E+012.5446428571E+01+
*       1.8500000000E+01               0
GRID*               8438               04.0000000000E+012.4428571429E+01+
*       1.8500000000E+01               0
GRID*               8439               03.9000000000E+012.3410714286E+01+
*       1.8500000000E+01               0
GRID*               8440               04.0000000000E+012.2392857143E+01+
*       1.8500000000E+01               0
GRID*               8441               03.9000000000E+012.1375000000E+01+
*       1.8500000000E+01               0
GRID*               8442               04.0000000000E+012.0357142857E+01+
*       1.8500000000E+01               0
GRID*               8443               03.9000000000E+011.9339285714E+01+
*       1.8500000000E+01               0
GRID*               8444               04.0000000000E+011.8321428571E+01+
*       1.8500000000E+01               0
GRID*               8445               03.9000000000E+011.7303571429E+01+
*       1.8500000000E+01               0
GRID*               8446               04.0000000000E+011.6285714286E+01+
*       1.8500000000E+01               0
GRID*               8447               03.9000000000E+011.5267857143E+01+
*       1.8500000000E+01               0
GRID*               8448               04.0000000000E+011.4250000000E+01+
*       1.8500000000E+01               0
GRID*               8449               03.9000000000E+011.3232142857E+01+
*       1.8500000000E+01               0
GRID*               8450               04.0000000000E+011.2214285714E+01+
*       1.8500000000E+01               0
GRID*               8451               03.9000000000E+011.1196428571E+01+
*       1.8500000000E+01               0
GRID*               8452               04.0000000000E+011.0178571429E+01+
*       1.8500000000E+01               0
GRID*               8453               03.9000000000E+019.1607142857E+00+
*       1.8500000000E+01               0
GRID*               8454               04.0000000000E+018.1428571429E+00+
*       1.8500000000E+01               0
GRID*               8455               03.9000000000E+017.1250000000E+00+
*       1.8500000000E+01               0
GRID*               8456               04.0000000000E+016.1071428571E+00+
*       1.8500000000E+01               0
GRID*               8457               03.9000000000E+015.0892857143E+00+
*       1.8500000000E+01               0
GRID*               8458               04.0000000000E+014.0714285714E+00+
*       1.8500000000E+01               0
GRID*               8459               03.9000000000E+013.0535714286E+00+
*       1.8500000000E+01               0
GRID*               8460               04.0000000000E+012.0357142857E+00+
*       1.8500000000E+01               0
GRID*               8461               03.8000000000E+012.6464285714E+01+
*       1.8500000000E+01               0
GRID*               8462               03.7000000000E+012.5446428571E+01+
*       1.8500000000E+01               0
GRID*               8463               03.8000000000E+012.4428571429E+01+
*       1.8500000000E+01               0
GRID*               8464               03.7000000000E+012.3410714286E+01+
*       1.8500000000E+01               0
GRID*               8465               03.8000000000E+012.2392857143E+01+
*       1.8500000000E+01               0
GRID*               8466               03.7000000000E+012.1375000000E+01+
*       1.8500000000E+01               0
GRID*               8467               03.8000000000E+012.0357142857E+01+
*       1.8500000000E+01               0
GRID*               8468               03.7000000000E+011.9339285714E+01+
*       1.8500000000E+01               0
GRID*               8469               03.8000000000E+011.8321428571E+01+
*       1.8500000000E+01               0
GRID*               8470               03.7000000000E+011.7303571429E+01+
*       1.8500000000E+01               0
GRID*               8471               03.8000000000E+011.6285714286E+01+
*       1.8500000000E+01               0
GRID*               8472               03.7000000000E+011.5267857143E+01+
*       1.8500000000E+01               0
GRID*               8473               03.8000000000E+011.4250000000E+01+
*       1.8500000000E+01               0
GRID*               8474               03.7000000000E+011.3232142857E+01+
*       1.8500000000E+01               0
GRID*               8475               03.8000000000E+011.2214285714E+01+
*       1.8500000000E+01               0
GRID*               8476               03.7000000000E+011.1196428571E+01+
*       1.8500000000E+01               0
GRID*               8477               03.8000000000E+011.0178571429E+01+
*       1.8500000000E+01               0
GRID*               8478               03.7000000000E+019.1607142857E+00+
*       1.8500000000E+01               0
GRID*               8479               03.8000000000E+018.1428571429E+00+
*       1.8500000000E+01               0
GRID*               8480               03.7000000000E+017.1250000000E+00+
*       1.8500000000E+01               0
GRID*               8481               03.8000000000E+016.1071428571E+00+
*       1.8500000000E+01               0
GRID*               8482               03.7000000000E+015.0892857143E+00+
*       1.8500000000E+01               0
GRID*               8483               03.8000000000E+014.0714285714E+00+
*       1.8500000000E+01               0
GRID*               8484               03.7000000000E+013.0535714286E+00+
*       1.8500000000E+01               0
GRID*               8485               03.8000000000E+012.0357142857E+00+
*       1.8500000000E+01               0
GRID*               8486               03.6000000000E+012.6464285714E+01+
*       1.8500000000E+01               0
GRID*               8487               03.5000000000E+012.5446428571E+01+
*       1.8500000000E+01               0
GRID*               8488               03.6000000000E+012.4428571429E+01+
*       1.8500000000E+01               0
GRID*               8489               03.5000000000E+012.3410714286E+01+
*       1.8500000000E+01               0
GRID*               8490               03.6000000000E+012.2392857143E+01+
*       1.8500000000E+01               0
GRID*               8491               03.5000000000E+012.1375000000E+01+
*       1.8500000000E+01               0
GRID*               8492               03.6000000000E+012.0357142857E+01+
*       1.8500000000E+01               0
GRID*               8493               03.5000000000E+011.9339285714E+01+
*       1.8500000000E+01               0
GRID*               8494               03.6000000000E+011.8321428571E+01+
*       1.8500000000E+01               0
GRID*               8495               03.5000000000E+011.7303571429E+01+
*       1.8500000000E+01               0
GRID*               8496               03.6000000000E+011.6285714286E+01+
*       1.8500000000E+01               0
GRID*               8497               03.5000000000E+011.5267857143E+01+
*       1.8500000000E+01               0
GRID*               8498               03.6000000000E+011.4250000000E+01+
*       1.8500000000E+01               0
GRID*               8499               03.5000000000E+011.3232142857E+01+
*       1.8500000000E+01               0
GRID*               8500               03.6000000000E+011.2214285714E+01+
*       1.8500000000E+01               0
GRID*               8501               03.5000000000E+011.1196428571E+01+
*       1.8500000000E+01               0
GRID*               8502               03.6000000000E+011.0178571429E+01+
*       1.8500000000E+01               0
GRID*               8503               03.5000000000E+019.1607142857E+00+
*       1.8500000000E+01               0
GRID*               8504               03.6000000000E+018.1428571429E+00+
*       1.8500000000E+01               0
GRID*               8505               03.5000000000E+017.1250000000E+00+
*       1.8500000000E+01               0
GRID*               8506               03.6000000000E+016.1071428571E+00+
*       1.8500000000E+01               0
GRID*               8507               03.5000000000E+015.0892857143E+00+
*       1.8500000000E+01               0
GRID*               8508               03.6000000000E+014.0714285714E+00+
*       1.8500000000E+01               0
GRID*               8509               03.5000000000E+013.0535714286E+00+
*       1.8500000000E+01               0
GRID*               8510               03.6000000000E+012.0357142857E+00+
*       1.8500000000E+01               0
GRID*               8511               03.4000000000E+012.6464285714E+01+
*       1.8500000000E+01               0
GRID*               8512               03.3000000000E+012.5446428571E+01+
*       1.8500000000E+01               0
GRID*               8513               03.4000000000E+012.4428571429E+01+
*       1.8500000000E+01               0
GRID*               8514               03.3000000000E+012.3410714286E+01+
*       1.8500000000E+01               0
GRID*               8515               03.4000000000E+012.2392857143E+01+
*       1.8500000000E+01               0
GRID*               8516               03.3000000000E+012.1375000000E+01+
*       1.8500000000E+01               0
GRID*               8517               03.4000000000E+012.0357142857E+01+
*       1.8500000000E+01               0
GRID*               8518               03.3000000000E+011.9339285714E+01+
*       1.8500000000E+01               0
GRID*               8519               03.4000000000E+011.8321428571E+01+
*       1.8500000000E+01               0
GRID*               8520               03.3000000000E+011.7303571429E+01+
*       1.8500000000E+01               0
GRID*               8521               03.4000000000E+011.6285714286E+01+
*       1.8500000000E+01               0
GRID*               8522               03.3000000000E+011.5267857143E+01+
*       1.8500000000E+01               0
GRID*               8523               03.4000000000E+011.4250000000E+01+
*       1.8500000000E+01               0
GRID*               8524               03.3000000000E+011.3232142857E+01+
*       1.8500000000E+01               0
GRID*               8525               03.4000000000E+011.2214285714E+01+
*       1.8500000000E+01               0
GRID*               8526               03.3000000000E+011.1196428571E+01+
*       1.8500000000E+01               0
GRID*               8527               03.4000000000E+011.0178571429E+01+
*       1.8500000000E+01               0
GRID*               8528               03.3000000000E+019.1607142857E+00+
*       1.8500000000E+01               0
GRID*               8529               03.4000000000E+018.1428571429E+00+
*       1.8500000000E+01               0
GRID*               8530               03.3000000000E+017.1250000000E+00+
*       1.8500000000E+01               0
GRID*               8531               03.4000000000E+016.1071428571E+00+
*       1.8500000000E+01               0
GRID*               8532               03.3000000000E+015.0892857143E+00+
*       1.8500000000E+01               0
GRID*               8533               03.4000000000E+014.0714285714E+00+
*       1.8500000000E+01               0
GRID*               8534               03.3000000000E+013.0535714286E+00+
*       1.8500000000E+01               0
GRID*               8535               03.4000000000E+012.0357142857E+00+
*       1.8500000000E+01               0
GRID*               8536               03.2000000000E+012.6464285714E+01+
*       1.8500000000E+01               0
GRID*               8537               03.1000000000E+012.5446428571E+01+
*       1.8500000000E+01               0
GRID*               8538               03.2000000000E+012.4428571429E+01+
*       1.8500000000E+01               0
GRID*               8539               03.1000000000E+012.3410714286E+01+
*       1.8500000000E+01               0
GRID*               8540               03.2000000000E+012.2392857143E+01+
*       1.8500000000E+01               0
GRID*               8541               03.1000000000E+012.1375000000E+01+
*       1.8500000000E+01               0
GRID*               8542               03.2000000000E+012.0357142857E+01+
*       1.8500000000E+01               0
GRID*               8543               03.1000000000E+011.9339285714E+01+
*       1.8500000000E+01               0
GRID*               8544               03.2000000000E+011.8321428571E+01+
*       1.8500000000E+01               0
GRID*               8545               03.1000000000E+011.7303571429E+01+
*       1.8500000000E+01               0
GRID*               8546               03.2000000000E+011.6285714286E+01+
*       1.8500000000E+01               0
GRID*               8547               03.1000000000E+011.5267857143E+01+
*       1.8500000000E+01               0
GRID*               8548               03.2000000000E+011.4250000000E+01+
*       1.8500000000E+01               0
GRID*               8549               03.1000000000E+011.3232142857E+01+
*       1.8500000000E+01               0
GRID*               8550               03.2000000000E+011.2214285714E+01+
*       1.8500000000E+01               0
GRID*               8551               03.1000000000E+011.1196428571E+01+
*       1.8500000000E+01               0
GRID*               8552               03.2000000000E+011.0178571429E+01+
*       1.8500000000E+01               0
GRID*               8553               03.1000000000E+019.1607142857E+00+
*       1.8500000000E+01               0
GRID*               8554               03.2000000000E+018.1428571429E+00+
*       1.8500000000E+01               0
GRID*               8555               03.1000000000E+017.1250000000E+00+
*       1.8500000000E+01               0
GRID*               8556               03.2000000000E+016.1071428571E+00+
*       1.8500000000E+01               0
GRID*               8557               03.1000000000E+015.0892857143E+00+
*       1.8500000000E+01               0
GRID*               8558               03.2000000000E+014.0714285714E+00+
*       1.8500000000E+01               0
GRID*               8559               03.1000000000E+013.0535714286E+00+
*       1.8500000000E+01               0
GRID*               8560               03.2000000000E+012.0357142857E+00+
*       1.8500000000E+01               0
GRID*               8561               03.0000000000E+012.6464285714E+01+
*       1.8500000000E+01               0
GRID*               8562               02.9000000000E+012.5446428571E+01+
*       1.8500000000E+01               0
GRID*               8563               03.0000000000E+012.4428571429E+01+
*       1.8500000000E+01               0
GRID*               8564               02.9000000000E+012.3410714286E+01+
*       1.8500000000E+01               0
GRID*               8565               03.0000000000E+012.2392857143E+01+
*       1.8500000000E+01               0
GRID*               8566               02.9000000000E+012.1375000000E+01+
*       1.8500000000E+01               0
GRID*               8567               03.0000000000E+012.0357142857E+01+
*       1.8500000000E+01               0
GRID*               8568               02.9000000000E+011.9339285714E+01+
*       1.8500000000E+01               0
GRID*               8569               03.0000000000E+011.8321428571E+01+
*       1.8500000000E+01               0
GRID*               8570               02.9000000000E+011.7303571429E+01+
*       1.8500000000E+01               0
GRID*               8571               03.0000000000E+011.6285714286E+01+
*       1.8500000000E+01               0
GRID*               8572               02.9000000000E+011.5267857143E+01+
*       1.8500000000E+01               0
GRID*               8573               03.0000000000E+011.4250000000E+01+
*       1.8500000000E+01               0
GRID*               8574               02.9000000000E+011.3232142857E+01+
*       1.8500000000E+01               0
GRID*               8575               03.0000000000E+011.2214285714E+01+
*       1.8500000000E+01               0
GRID*               8576               02.9000000000E+011.1196428571E+01+
*       1.8500000000E+01               0
GRID*               8577               03.0000000000E+011.0178571429E+01+
*       1.8500000000E+01               0
GRID*               8578               02.9000000000E+019.1607142857E+00+
*       1.8500000000E+01               0
GRID*               8579               03.0000000000E+018.1428571429E+00+
*       1.8500000000E+01               0
GRID*               8580               02.9000000000E+017.1250000000E+00+
*       1.8500000000E+01               0
GRID*               8581               03.0000000000E+016.1071428571E+00+
*       1.8500000000E+01               0
GRID*               8582               02.9000000000E+015.0892857143E+00+
*       1.8500000000E+01               0
GRID*               8583               03.0000000000E+014.0714285714E+00+
*       1.8500000000E+01               0
GRID*               8584               02.9000000000E+013.0535714286E+00+
*       1.8500000000E+01               0
GRID*               8585               03.0000000000E+012.0357142857E+00+
*       1.8500000000E+01               0
GRID*               8586               02.8000000000E+012.6464285714E+01+
*       1.8500000000E+01               0
GRID*               8587               02.7000000000E+012.5446428571E+01+
*       1.8500000000E+01               0
GRID*               8588               02.8000000000E+012.4428571429E+01+
*       1.8500000000E+01               0
GRID*               8589               02.7000000000E+012.3410714286E+01+
*       1.8500000000E+01               0
GRID*               8590               02.8000000000E+012.2392857143E+01+
*       1.8500000000E+01               0
GRID*               8591               02.7000000000E+012.1375000000E+01+
*       1.8500000000E+01               0
GRID*               8592               02.8000000000E+012.0357142857E+01+
*       1.8500000000E+01               0
GRID*               8593               02.7000000000E+011.9339285714E+01+
*       1.8500000000E+01               0
GRID*               8594               02.8000000000E+011.8321428571E+01+
*       1.8500000000E+01               0
GRID*               8595               02.7000000000E+011.7303571429E+01+
*       1.8500000000E+01               0
GRID*               8596               02.8000000000E+011.6285714286E+01+
*       1.8500000000E+01               0
GRID*               8597               02.7000000000E+011.5267857143E+01+
*       1.8500000000E+01               0
GRID*               8598               02.8000000000E+011.4250000000E+01+
*       1.8500000000E+01               0
GRID*               8599               02.7000000000E+011.3232142857E+01+
*       1.8500000000E+01               0
GRID*               8600               02.8000000000E+011.2214285714E+01+
*       1.8500000000E+01               0
GRID*               8601               02.7000000000E+011.1196428571E+01+
*       1.8500000000E+01               0
GRID*               8602               02.8000000000E+011.0178571429E+01+
*       1.8500000000E+01               0
GRID*               8603               02.7000000000E+019.1607142857E+00+
*       1.8500000000E+01               0
GRID*               8604               02.8000000000E+018.1428571429E+00+
*       1.8500000000E+01               0
GRID*               8605               02.7000000000E+017.1250000000E+00+
*       1.8500000000E+01               0
GRID*               8606               02.8000000000E+016.1071428571E+00+
*       1.8500000000E+01               0
GRID*               8607               02.7000000000E+015.0892857143E+00+
*       1.8500000000E+01               0
GRID*               8608               02.8000000000E+014.0714285714E+00+
*       1.8500000000E+01               0
GRID*               8609               02.7000000000E+013.0535714286E+00+
*       1.8500000000E+01               0
GRID*               8610               02.8000000000E+012.0357142857E+00+
*       1.8500000000E+01               0
GRID*               8611               02.6000000000E+012.6464285714E+01+
*       1.8500000000E+01               0
GRID*               8612               02.5000000000E+012.5446428571E+01+
*       1.8500000000E+01               0
GRID*               8613               02.6000000000E+012.4428571429E+01+
*       1.8500000000E+01               0
GRID*               8614               02.5000000000E+012.3410714286E+01+
*       1.8500000000E+01               0
GRID*               8615               02.6000000000E+012.2392857143E+01+
*       1.8500000000E+01               0
GRID*               8616               02.5000000000E+012.1375000000E+01+
*       1.8500000000E+01               0
GRID*               8617               02.6000000000E+012.0357142857E+01+
*       1.8500000000E+01               0
GRID*               8618               02.5000000000E+011.9339285714E+01+
*       1.8500000000E+01               0
GRID*               8619               02.6000000000E+011.8321428571E+01+
*       1.8500000000E+01               0
GRID*               8620               02.5000000000E+011.7303571429E+01+
*       1.8500000000E+01               0
GRID*               8621               02.6000000000E+011.6285714286E+01+
*       1.8500000000E+01               0
GRID*               8622               02.5000000000E+011.5267857143E+01+
*       1.8500000000E+01               0
GRID*               8623               02.6000000000E+011.4250000000E+01+
*       1.8500000000E+01               0
GRID*               8624               02.5000000000E+011.3232142857E+01+
*       1.8500000000E+01               0
GRID*               8625               02.6000000000E+011.2214285714E+01+
*       1.8500000000E+01               0
GRID*               8626               02.5000000000E+011.1196428571E+01+
*       1.8500000000E+01               0
GRID*               8627               02.6000000000E+011.0178571429E+01+
*       1.8500000000E+01               0
GRID*               8628               02.5000000000E+019.1607142857E+00+
*       1.8500000000E+01               0
GRID*               8629               02.6000000000E+018.1428571429E+00+
*       1.8500000000E+01               0
GRID*               8630               02.5000000000E+017.1250000000E+00+
*       1.8500000000E+01               0
GRID*               8631               02.6000000000E+016.1071428571E+00+
*       1.8500000000E+01               0
GRID*               8632               02.5000000000E+015.0892857143E+00+
*       1.8500000000E+01               0
GRID*               8633               02.6000000000E+014.0714285714E+00+
*       1.8500000000E+01               0
GRID*               8634               02.5000000000E+013.0535714286E+00+
*       1.8500000000E+01               0
GRID*               8635               02.6000000000E+012.0357142857E+00+
*       1.8500000000E+01               0
GRID*               8636               02.4000000000E+012.6464285714E+01+
*       1.8500000000E+01               0
GRID*               8637               02.3000000000E+012.5446428571E+01+
*       1.8500000000E+01               0
GRID*               8638               02.4000000000E+012.4428571429E+01+
*       1.8500000000E+01               0
GRID*               8639               02.3000000000E+012.3410714286E+01+
*       1.8500000000E+01               0
GRID*               8640               02.4000000000E+012.2392857143E+01+
*       1.8500000000E+01               0
GRID*               8641               02.3000000000E+012.1375000000E+01+
*       1.8500000000E+01               0
GRID*               8642               02.4000000000E+012.0357142857E+01+
*       1.8500000000E+01               0
GRID*               8643               02.3000000000E+011.9339285714E+01+
*       1.8500000000E+01               0
GRID*               8644               02.4000000000E+011.8321428571E+01+
*       1.8500000000E+01               0
GRID*               8645               02.3000000000E+011.7303571429E+01+
*       1.8500000000E+01               0
GRID*               8646               02.4000000000E+011.6285714286E+01+
*       1.8500000000E+01               0
GRID*               8647               02.3000000000E+011.5267857143E+01+
*       1.8500000000E+01               0
GRID*               8648               02.4000000000E+011.4250000000E+01+
*       1.8500000000E+01               0
GRID*               8649               02.3000000000E+011.3232142857E+01+
*       1.8500000000E+01               0
GRID*               8650               02.4000000000E+011.2214285714E+01+
*       1.8500000000E+01               0
GRID*               8651               02.3000000000E+011.1196428571E+01+
*       1.8500000000E+01               0
GRID*               8652               02.4000000000E+011.0178571429E+01+
*       1.8500000000E+01               0
GRID*               8653               02.3000000000E+019.1607142857E+00+
*       1.8500000000E+01               0
GRID*               8654               02.4000000000E+018.1428571429E+00+
*       1.8500000000E+01               0
GRID*               8655               02.3000000000E+017.1250000000E+00+
*       1.8500000000E+01               0
GRID*               8656               02.4000000000E+016.1071428571E+00+
*       1.8500000000E+01               0
GRID*               8657               02.3000000000E+015.0892857143E+00+
*       1.8500000000E+01               0
GRID*               8658               02.4000000000E+014.0714285714E+00+
*       1.8500000000E+01               0
GRID*               8659               02.3000000000E+013.0535714286E+00+
*       1.8500000000E+01               0
GRID*               8660               02.4000000000E+012.0357142857E+00+
*       1.8500000000E+01               0
GRID*               8661               02.2000000000E+012.6464285714E+01+
*       1.8500000000E+01               0
GRID*               8662               02.1000000000E+012.5446428571E+01+
*       1.8500000000E+01               0
GRID*               8663               02.2000000000E+012.4428571429E+01+
*       1.8500000000E+01               0
GRID*               8664               02.1000000000E+012.3410714286E+01+
*       1.8500000000E+01               0
GRID*               8665               02.2000000000E+012.2392857143E+01+
*       1.8500000000E+01               0
GRID*               8666               02.1000000000E+012.1375000000E+01+
*       1.8500000000E+01               0
GRID*               8667               02.2000000000E+012.0357142857E+01+
*       1.8500000000E+01               0
GRID*               8668               02.1000000000E+011.9339285714E+01+
*       1.8500000000E+01               0
GRID*               8669               02.2000000000E+011.8321428571E+01+
*       1.8500000000E+01               0
GRID*               8670               02.1000000000E+011.7303571429E+01+
*       1.8500000000E+01               0
GRID*               8671               02.2000000000E+011.6285714286E+01+
*       1.8500000000E+01               0
GRID*               8672               02.1000000000E+011.5267857143E+01+
*       1.8500000000E+01               0
GRID*               8673               02.2000000000E+011.4250000000E+01+
*       1.8500000000E+01               0
GRID*               8674               02.1000000000E+011.3232142857E+01+
*       1.8500000000E+01               0
GRID*               8675               02.2000000000E+011.2214285714E+01+
*       1.8500000000E+01               0
GRID*               8676               02.1000000000E+011.1196428571E+01+
*       1.8500000000E+01               0
GRID*               8677               02.2000000000E+011.0178571429E+01+
*       1.8500000000E+01               0
GRID*               8678               02.1000000000E+019.1607142857E+00+
*       1.8500000000E+01               0
GRID*               8679               02.2000000000E+018.1428571429E+00+
*       1.8500000000E+01               0
GRID*               8680               02.1000000000E+017.1250000000E+00+
*       1.8500000000E+01               0
GRID*               8681               02.2000000000E+016.1071428571E+00+
*       1.8500000000E+01               0
GRID*               8682               02.1000000000E+015.0892857143E+00+
*       1.8500000000E+01               0
GRID*               8683               02.2000000000E+014.0714285714E+00+
*       1.8500000000E+01               0
GRID*               8684               02.1000000000E+013.0535714286E+00+
*       1.8500000000E+01               0
GRID*               8685               02.2000000000E+012.0357142857E+00+
*       1.8500000000E+01               0
GRID*               8686               02.0000000000E+012.6464285714E+01+
*       1.8500000000E+01               0
GRID*               8687               01.9000000000E+012.5446428571E+01+
*       1.8500000000E+01               0
GRID*               8688               02.0000000000E+012.4428571429E+01+
*       1.8500000000E+01               0
GRID*               8689               01.9000000000E+012.3410714286E+01+
*       1.8500000000E+01               0
GRID*               8690               02.0000000000E+012.2392857143E+01+
*       1.8500000000E+01               0
GRID*               8691               01.9000000000E+012.1375000000E+01+
*       1.8500000000E+01               0
GRID*               8692               02.0000000000E+012.0357142857E+01+
*       1.8500000000E+01               0
GRID*               8693               01.9000000000E+011.9339285714E+01+
*       1.8500000000E+01               0
GRID*               8694               02.0000000000E+011.8321428571E+01+
*       1.8500000000E+01               0
GRID*               8695               01.9000000000E+011.7303571429E+01+
*       1.8500000000E+01               0
GRID*               8696               02.0000000000E+011.6285714286E+01+
*       1.8500000000E+01               0
GRID*               8697               01.9000000000E+011.5267857143E+01+
*       1.8500000000E+01               0
GRID*               8698               02.0000000000E+011.4250000000E+01+
*       1.8500000000E+01               0
GRID*               8699               01.9000000000E+011.3232142857E+01+
*       1.8500000000E+01               0
GRID*               8700               02.0000000000E+011.2214285714E+01+
*       1.8500000000E+01               0
GRID*               8701               01.9000000000E+011.1196428571E+01+
*       1.8500000000E+01               0
GRID*               8702               02.0000000000E+011.0178571429E+01+
*       1.8500000000E+01               0
GRID*               8703               01.9000000000E+019.1607142857E+00+
*       1.8500000000E+01               0
GRID*               8704               02.0000000000E+018.1428571429E+00+
*       1.8500000000E+01               0
GRID*               8705               01.9000000000E+017.1250000000E+00+
*       1.8500000000E+01               0
GRID*               8706               02.0000000000E+016.1071428571E+00+
*       1.8500000000E+01               0
GRID*               8707               01.9000000000E+015.0892857143E+00+
*       1.8500000000E+01               0
GRID*               8708               02.0000000000E+014.0714285714E+00+
*       1.8500000000E+01               0
GRID*               8709               01.9000000000E+013.0535714286E+00+
*       1.8500000000E+01               0
GRID*               8710               02.0000000000E+012.0357142857E+00+
*       1.8500000000E+01               0
GRID*               8711               01.8000000000E+012.6464285714E+01+
*       1.8500000000E+01               0
GRID*               8712               01.7000000000E+012.5446428571E+01+
*       1.8500000000E+01               0
GRID*               8713               01.8000000000E+012.4428571429E+01+
*       1.8500000000E+01               0
GRID*               8714               01.7000000000E+012.3410714286E+01+
*       1.8500000000E+01               0
GRID*               8715               01.8000000000E+012.2392857143E+01+
*       1.8500000000E+01               0
GRID*               8716               01.7000000000E+012.1375000000E+01+
*       1.8500000000E+01               0
GRID*               8717               01.8000000000E+012.0357142857E+01+
*       1.8500000000E+01               0
GRID*               8718               01.7000000000E+011.9339285714E+01+
*       1.8500000000E+01               0
GRID*               8719               01.8000000000E+011.8321428571E+01+
*       1.8500000000E+01               0
GRID*               8720               01.7000000000E+011.7303571429E+01+
*       1.8500000000E+01               0
GRID*               8721               01.8000000000E+011.6285714286E+01+
*       1.8500000000E+01               0
GRID*               8722               01.7000000000E+011.5267857143E+01+
*       1.8500000000E+01               0
GRID*               8723               01.8000000000E+011.4250000000E+01+
*       1.8500000000E+01               0
GRID*               8724               01.7000000000E+011.3232142857E+01+
*       1.8500000000E+01               0
GRID*               8725               01.8000000000E+011.2214285714E+01+
*       1.8500000000E+01               0
GRID*               8726               01.7000000000E+011.1196428571E+01+
*       1.8500000000E+01               0
GRID*               8727               01.8000000000E+011.0178571429E+01+
*       1.8500000000E+01               0
GRID*               8728               01.7000000000E+019.1607142857E+00+
*       1.8500000000E+01               0
GRID*               8729               01.8000000000E+018.1428571429E+00+
*       1.8500000000E+01               0
GRID*               8730               01.7000000000E+017.1250000000E+00+
*       1.8500000000E+01               0
GRID*               8731               01.8000000000E+016.1071428571E+00+
*       1.8500000000E+01               0
GRID*               8732               01.7000000000E+015.0892857143E+00+
*       1.8500000000E+01               0
GRID*               8733               01.8000000000E+014.0714285714E+00+
*       1.8500000000E+01               0
GRID*               8734               01.7000000000E+013.0535714286E+00+
*       1.8500000000E+01               0
GRID*               8735               01.8000000000E+012.0357142857E+00+
*       1.8500000000E+01               0
GRID*               8736               01.6000000000E+012.6464285714E+01+
*       1.8500000000E+01               0
GRID*               8737               01.5000000000E+012.5446428571E+01+
*       1.8500000000E+01               0
GRID*               8738               01.6000000000E+012.4428571429E+01+
*       1.8500000000E+01               0
GRID*               8739               01.5000000000E+012.3410714286E+01+
*       1.8500000000E+01               0
GRID*               8740               01.6000000000E+012.2392857143E+01+
*       1.8500000000E+01               0
GRID*               8741               01.5000000000E+012.1375000000E+01+
*       1.8500000000E+01               0
GRID*               8742               01.6000000000E+012.0357142857E+01+
*       1.8500000000E+01               0
GRID*               8743               01.5000000000E+011.9339285714E+01+
*       1.8500000000E+01               0
GRID*               8744               01.6000000000E+011.8321428571E+01+
*       1.8500000000E+01               0
GRID*               8745               01.5000000000E+011.7303571429E+01+
*       1.8500000000E+01               0
GRID*               8746               01.6000000000E+011.6285714286E+01+
*       1.8500000000E+01               0
GRID*               8747               01.5000000000E+011.5267857143E+01+
*       1.8500000000E+01               0
GRID*               8748               01.6000000000E+011.4250000000E+01+
*       1.8500000000E+01               0
GRID*               8749               01.5000000000E+011.3232142857E+01+
*       1.8500000000E+01               0
GRID*               8750               01.6000000000E+011.2214285714E+01+
*       1.8500000000E+01               0
GRID*               8751               01.5000000000E+011.1196428571E+01+
*       1.8500000000E+01               0
GRID*               8752               01.6000000000E+011.0178571429E+01+
*       1.8500000000E+01               0
GRID*               8753               01.5000000000E+019.1607142857E+00+
*       1.8500000000E+01               0
GRID*               8754               01.6000000000E+018.1428571429E+00+
*       1.8500000000E+01               0
GRID*               8755               01.5000000000E+017.1250000000E+00+
*       1.8500000000E+01               0
GRID*               8756               01.6000000000E+016.1071428571E+00+
*       1.8500000000E+01               0
GRID*               8757               01.5000000000E+015.0892857143E+00+
*       1.8500000000E+01               0
GRID*               8758               01.6000000000E+014.0714285714E+00+
*       1.8500000000E+01               0
GRID*               8759               01.5000000000E+013.0535714286E+00+
*       1.8500000000E+01               0
GRID*               8760               01.6000000000E+012.0357142857E+00+
*       1.8500000000E+01               0
GRID*               8761               01.4000000000E+012.6464285714E+01+
*       1.8500000000E+01               0
GRID*               8762               01.3000000000E+012.5446428571E+01+
*       1.8500000000E+01               0
GRID*               8763               01.4000000000E+012.4428571429E+01+
*       1.8500000000E+01               0
GRID*               8764               01.3000000000E+012.3410714286E+01+
*       1.8500000000E+01               0
GRID*               8765               01.4000000000E+012.2392857143E+01+
*       1.8500000000E+01               0
GRID*               8766               01.3000000000E+012.1375000000E+01+
*       1.8500000000E+01               0
GRID*               8767               01.4000000000E+012.0357142857E+01+
*       1.8500000000E+01               0
GRID*               8768               01.3000000000E+011.9339285714E+01+
*       1.8500000000E+01               0
GRID*               8769               01.4000000000E+011.8321428571E+01+
*       1.8500000000E+01               0
GRID*               8770               01.3000000000E+011.7303571429E+01+
*       1.8500000000E+01               0
GRID*               8771               01.4000000000E+011.6285714286E+01+
*       1.8500000000E+01               0
GRID*               8772               01.3000000000E+011.5267857143E+01+
*       1.8500000000E+01               0
GRID*               8773               01.4000000000E+011.4250000000E+01+
*       1.8500000000E+01               0
GRID*               8774               01.3000000000E+011.3232142857E+01+
*       1.8500000000E+01               0
GRID*               8775               01.4000000000E+011.2214285714E+01+
*       1.8500000000E+01               0
GRID*               8776               01.3000000000E+011.1196428571E+01+
*       1.8500000000E+01               0
GRID*               8777               01.4000000000E+011.0178571429E+01+
*       1.8500000000E+01               0
GRID*               8778               01.3000000000E+019.1607142857E+00+
*       1.8500000000E+01               0
GRID*               8779               01.4000000000E+018.1428571429E+00+
*       1.8500000000E+01               0
GRID*               8780               01.3000000000E+017.1250000000E+00+
*       1.8500000000E+01               0
GRID*               8781               01.4000000000E+016.1071428571E+00+
*       1.8500000000E+01               0
GRID*               8782               01.3000000000E+015.0892857143E+00+
*       1.8500000000E+01               0
GRID*               8783               01.4000000000E+014.0714285714E+00+
*       1.8500000000E+01               0
GRID*               8784               01.3000000000E+013.0535714286E+00+
*       1.8500000000E+01               0
GRID*               8785               01.4000000000E+012.0357142857E+00+
*       1.8500000000E+01               0
GRID*               8786               01.2000000000E+012.6464285714E+01+
*       1.8500000000E+01               0
GRID*               8787               01.1000000000E+012.5446428571E+01+
*       1.8500000000E+01               0
GRID*               8788               01.2000000000E+012.4428571429E+01+
*       1.8500000000E+01               0
GRID*               8789               01.1000000000E+012.3410714286E+01+
*       1.8500000000E+01               0
GRID*               8790               01.2000000000E+012.2392857143E+01+
*       1.8500000000E+01               0
GRID*               8791               01.1000000000E+012.1375000000E+01+
*       1.8500000000E+01               0
GRID*               8792               01.2000000000E+012.0357142857E+01+
*       1.8500000000E+01               0
GRID*               8793               01.1000000000E+011.9339285714E+01+
*       1.8500000000E+01               0
GRID*               8794               01.2000000000E+011.8321428571E+01+
*       1.8500000000E+01               0
GRID*               8795               01.1000000000E+011.7303571429E+01+
*       1.8500000000E+01               0
GRID*               8796               01.2000000000E+011.6285714286E+01+
*       1.8500000000E+01               0
GRID*               8797               01.1000000000E+011.5267857143E+01+
*       1.8500000000E+01               0
GRID*               8798               01.2000000000E+011.4250000000E+01+
*       1.8500000000E+01               0
GRID*               8799               01.1000000000E+011.3232142857E+01+
*       1.8500000000E+01               0
GRID*               8800               01.2000000000E+011.2214285714E+01+
*       1.8500000000E+01               0
GRID*               8801               01.1000000000E+011.1196428571E+01+
*       1.8500000000E+01               0
GRID*               8802               01.2000000000E+011.0178571429E+01+
*       1.8500000000E+01               0
GRID*               8803               01.1000000000E+019.1607142857E+00+
*       1.8500000000E+01               0
GRID*               8804               01.2000000000E+018.1428571429E+00+
*       1.8500000000E+01               0
GRID*               8805               01.1000000000E+017.1250000000E+00+
*       1.8500000000E+01               0
GRID*               8806               01.2000000000E+016.1071428571E+00+
*       1.8500000000E+01               0
GRID*               8807               01.1000000000E+015.0892857143E+00+
*       1.8500000000E+01               0
GRID*               8808               01.2000000000E+014.0714285714E+00+
*       1.8500000000E+01               0
GRID*               8809               01.1000000000E+013.0535714286E+00+
*       1.8500000000E+01               0
GRID*               8810               01.2000000000E+012.0357142857E+00+
*       1.8500000000E+01               0
GRID*               8811               01.0000000000E+012.6464285714E+01+
*       1.8500000000E+01               0
GRID*               8812               09.0000000000E+002.5446428571E+01+
*       1.8500000000E+01               0
GRID*               8813               01.0000000000E+012.4428571429E+01+
*       1.8500000000E+01               0
GRID*               8814               09.0000000000E+002.3410714286E+01+
*       1.8500000000E+01               0
GRID*               8815               01.0000000000E+012.2392857143E+01+
*       1.8500000000E+01               0
GRID*               8816               09.0000000000E+002.1375000000E+01+
*       1.8500000000E+01               0
GRID*               8817               01.0000000000E+012.0357142857E+01+
*       1.8500000000E+01               0
GRID*               8818               09.0000000000E+001.9339285714E+01+
*       1.8500000000E+01               0
GRID*               8819               01.0000000000E+011.8321428571E+01+
*       1.8500000000E+01               0
GRID*               8820               09.0000000000E+001.7303571429E+01+
*       1.8500000000E+01               0
GRID*               8821               01.0000000000E+011.6285714286E+01+
*       1.8500000000E+01               0
GRID*               8822               09.0000000000E+001.5267857143E+01+
*       1.8500000000E+01               0
GRID*               8823               01.0000000000E+011.4250000000E+01+
*       1.8500000000E+01               0
GRID*               8824               09.0000000000E+001.3232142857E+01+
*       1.8500000000E+01               0
GRID*               8825               01.0000000000E+011.2214285714E+01+
*       1.8500000000E+01               0
GRID*               8826               09.0000000000E+001.1196428571E+01+
*       1.8500000000E+01               0
GRID*               8827               01.0000000000E+011.0178571429E+01+
*       1.8500000000E+01               0
GRID*               8828               09.0000000000E+009.1607142857E+00+
*       1.8500000000E+01               0
GRID*               8829               01.0000000000E+018.1428571429E+00+
*       1.8500000000E+01               0
GRID*               8830               09.0000000000E+007.1250000000E+00+
*       1.8500000000E+01               0
GRID*               8831               01.0000000000E+016.1071428571E+00+
*       1.8500000000E+01               0
GRID*               8832               09.0000000000E+005.0892857143E+00+
*       1.8500000000E+01               0
GRID*               8833               01.0000000000E+014.0714285714E+00+
*       1.8500000000E+01               0
GRID*               8834               09.0000000000E+003.0535714286E+00+
*       1.8500000000E+01               0
GRID*               8835               01.0000000000E+012.0357142857E+00+
*       1.8500000000E+01               0
GRID*               8836               08.0000000000E+002.6464285714E+01+
*       1.8500000000E+01               0
GRID*               8837               07.0000000000E+002.5446428571E+01+
*       1.8500000000E+01               0
GRID*               8838               08.0000000000E+002.4428571429E+01+
*       1.8500000000E+01               0
GRID*               8839               07.0000000000E+002.3410714286E+01+
*       1.8500000000E+01               0
GRID*               8840               08.0000000000E+002.2392857143E+01+
*       1.8500000000E+01               0
GRID*               8841               07.0000000000E+002.1375000000E+01+
*       1.8500000000E+01               0
GRID*               8842               08.0000000000E+002.0357142857E+01+
*       1.8500000000E+01               0
GRID*               8843               07.0000000000E+001.9339285714E+01+
*       1.8500000000E+01               0
GRID*               8844               08.0000000000E+001.8321428571E+01+
*       1.8500000000E+01               0
GRID*               8845               07.0000000000E+001.7303571429E+01+
*       1.8500000000E+01               0
GRID*               8846               08.0000000000E+001.6285714286E+01+
*       1.8500000000E+01               0
GRID*               8847               07.0000000000E+001.5267857143E+01+
*       1.8500000000E+01               0
GRID*               8848               08.0000000000E+001.4250000000E+01+
*       1.8500000000E+01               0
GRID*               8849               07.0000000000E+001.3232142857E+01+
*       1.8500000000E+01               0
GRID*               8850               08.0000000000E+001.2214285714E+01+
*       1.8500000000E+01               0
GRID*               8851               07.0000000000E+001.1196428571E+01+
*       1.8500000000E+01               0
GRID*               8852               08.0000000000E+001.0178571429E+01+
*       1.8500000000E+01               0
GRID*               8853               07.0000000000E+009.1607142857E+00+
*       1.8500000000E+01               0
GRID*               8854               08.0000000000E+008.1428571429E+00+
*       1.8500000000E+01               0
GRID*               8855               07.0000000000E+007.1250000000E+00+
*       1.8500000000E+01               0
GRID*               8856               08.0000000000E+006.1071428571E+00+
*       1.8500000000E+01               0
GRID*               8857               07.0000000000E+005.0892857143E+00+
*       1.8500000000E+01               0
GRID*               8858               08.0000000000E+004.0714285714E+00+
*       1.8500000000E+01               0
GRID*               8859               07.0000000000E+003.0535714286E+00+
*       1.8500000000E+01               0
GRID*               8860               08.0000000000E+002.0357142857E+00+
*       1.8500000000E+01               0
GRID*               8861               06.0000000000E+002.6464285714E+01+
*       1.8500000000E+01               0
GRID*               8862               05.0000000000E+002.5446428571E+01+
*       1.8500000000E+01               0
GRID*               8863               06.0000000000E+002.4428571429E+01+
*       1.8500000000E+01               0
GRID*               8864               05.0000000000E+002.3410714286E+01+
*       1.8500000000E+01               0
GRID*               8865               06.0000000000E+002.2392857143E+01+
*       1.8500000000E+01               0
GRID*               8866               05.0000000000E+002.1375000000E+01+
*       1.8500000000E+01               0
GRID*               8867               06.0000000000E+002.0357142857E+01+
*       1.8500000000E+01               0
GRID*               8868               05.0000000000E+001.9339285714E+01+
*       1.8500000000E+01               0
GRID*               8869               06.0000000000E+001.8321428571E+01+
*       1.8500000000E+01               0
GRID*               8870               05.0000000000E+001.7303571429E+01+
*       1.8500000000E+01               0
GRID*               8871               06.0000000000E+001.6285714286E+01+
*       1.8500000000E+01               0
GRID*               8872               05.0000000000E+001.5267857143E+01+
*       1.8500000000E+01               0
GRID*               8873               06.0000000000E+001.4250000000E+01+
*       1.8500000000E+01               0
GRID*               8874               05.0000000000E+001.3232142857E+01+
*       1.8500000000E+01               0
GRID*               8875               06.0000000000E+001.2214285714E+01+
*       1.8500000000E+01               0
GRID*               8876               05.0000000000E+001.1196428571E+01+
*       1.8500000000E+01               0
GRID*               8877               06.0000000000E+001.0178571429E+01+
*       1.8500000000E+01               0
GRID*               8878               05.0000000000E+009.1607142857E+00+
*       1.8500000000E+01               0
GRID*               8879               06.0000000000E+008.1428571429E+00+
*       1.8500000000E+01               0
GRID*               8880               05.0000000000E+007.1250000000E+00+
*       1.8500000000E+01               0
GRID*               8881               06.0000000000E+006.1071428571E+00+
*       1.8500000000E+01               0
GRID*               8882               05.0000000000E+005.0892857143E+00+
*       1.8500000000E+01               0
GRID*               8883               06.0000000000E+004.0714285714E+00+
*       1.8500000000E+01               0
GRID*               8884               05.0000000000E+003.0535714286E+00+
*       1.8500000000E+01               0
GRID*               8885               06.0000000000E+002.0357142857E+00+
*       1.8500000000E+01               0
GRID*               8886               04.0000000000E+002.6464285714E+01+
*       1.8500000000E+01               0
GRID*               8887               03.0000000000E+002.5446428571E+01+
*       1.8500000000E+01               0
GRID*               8888               04.0000000000E+002.4428571429E+01+
*       1.8500000000E+01               0
GRID*               8889               03.0000000000E+002.3410714286E+01+
*       1.8500000000E+01               0
GRID*               8890               04.0000000000E+002.2392857143E+01+
*       1.8500000000E+01               0
GRID*               8891               03.0000000000E+002.1375000000E+01+
*       1.8500000000E+01               0
GRID*               8892               04.0000000000E+002.0357142857E+01+
*       1.8500000000E+01               0
GRID*               8893               03.0000000000E+001.9339285714E+01+
*       1.8500000000E+01               0
GRID*               8894               04.0000000000E+001.8321428571E+01+
*       1.8500000000E+01               0
GRID*               8895               03.0000000000E+001.7303571429E+01+
*       1.8500000000E+01               0
GRID*               8896               04.0000000000E+001.6285714286E+01+
*       1.8500000000E+01               0
GRID*               8897               03.0000000000E+001.5267857143E+01+
*       1.8500000000E+01               0
GRID*               8898               04.0000000000E+001.4250000000E+01+
*       1.8500000000E+01               0
GRID*               8899               03.0000000000E+001.3232142857E+01+
*       1.8500000000E+01               0
GRID*               8900               04.0000000000E+001.2214285714E+01+
*       1.8500000000E+01               0
GRID*               8901               03.0000000000E+001.1196428571E+01+
*       1.8500000000E+01               0
GRID*               8902               04.0000000000E+001.0178571429E+01+
*       1.8500000000E+01               0
GRID*               8903               03.0000000000E+009.1607142857E+00+
*       1.8500000000E+01               0
GRID*               8904               04.0000000000E+008.1428571429E+00+
*       1.8500000000E+01               0
GRID*               8905               03.0000000000E+007.1250000000E+00+
*       1.8500000000E+01               0
GRID*               8906               04.0000000000E+006.1071428571E+00+
*       1.8500000000E+01               0
GRID*               8907               03.0000000000E+005.0892857143E+00+
*       1.8500000000E+01               0
GRID*               8908               04.0000000000E+004.0714285714E+00+
*       1.8500000000E+01               0
GRID*               8909               03.0000000000E+003.0535714286E+00+
*       1.8500000000E+01               0
GRID*               8910               04.0000000000E+002.0357142857E+00+
*       1.8500000000E+01               0
GRID*               8911               02.0000000000E+002.6464285714E+01+
*       1.8500000000E+01               0
GRID*               8912               01.0000000000E+002.5446428571E+01+
*       1.8500000000E+01               0
GRID*               8913               02.0000000000E+002.4428571429E+01+
*       1.8500000000E+01               0
GRID*               8914               01.0000000000E+002.3410714286E+01+
*       1.8500000000E+01               0
GRID*               8915               02.0000000000E+002.2392857143E+01+
*       1.8500000000E+01               0
GRID*               8916               01.0000000000E+002.1375000000E+01+
*       1.8500000000E+01               0
GRID*               8917               02.0000000000E+002.0357142857E+01+
*       1.8500000000E+01               0
GRID*               8918               01.0000000000E+001.9339285714E+01+
*       1.8500000000E+01               0
GRID*               8919               02.0000000000E+001.8321428571E+01+
*       1.8500000000E+01               0
GRID*               8920               01.0000000000E+001.7303571429E+01+
*       1.8500000000E+01               0
GRID*               8921               02.0000000000E+001.6285714286E+01+
*       1.8500000000E+01               0
GRID*               8922               01.0000000000E+001.5267857143E+01+
*       1.8500000000E+01               0
GRID*               8923               02.0000000000E+001.4250000000E+01+
*       1.8500000000E+01               0
GRID*               8924               01.0000000000E+001.3232142857E+01+
*       1.8500000000E+01               0
GRID*               8925               02.0000000000E+001.2214285714E+01+
*       1.8500000000E+01               0
GRID*               8926               01.0000000000E+001.1196428571E+01+
*       1.8500000000E+01               0
GRID*               8927               02.0000000000E+001.0178571429E+01+
*       1.8500000000E+01               0
GRID*               8928               01.0000000000E+009.1607142857E+00+
*       1.8500000000E+01               0
GRID*               8929               02.0000000000E+008.1428571429E+00+
*       1.8500000000E+01               0
GRID*               8930               01.0000000000E+007.1250000000E+00+
*       1.8500000000E+01               0
GRID*               8931               02.0000000000E+006.1071428571E+00+
*       1.8500000000E+01               0
GRID*               8932               01.0000000000E+005.0892857143E+00+
*       1.8500000000E+01               0
GRID*               8933               02.0000000000E+004.0714285714E+00+
*       1.8500000000E+01               0
GRID*               8934               01.0000000000E+003.0535714286E+00+
*       1.8500000000E+01               0
GRID*               8935               02.0000000000E+002.0357142857E+00+
*       1.8500000000E+01               0
GRID*               8936               01.3739009930E-142.6464285714E+01+
*       1.8500000000E+01               0
GRID*               8937               0-1.000000000E+002.5446428571E+01+
*       1.8500000000E+01               0
GRID*               8938               0-6.494804694E-152.4428571429E+01+
*       1.8500000000E+01               0
GRID*               8939               0-1.000000000E+002.3410714286E+01+
*       1.8500000000E+01               0
GRID*               8940               0-1.665334537E-152.2392857143E+01+
*       1.8500000000E+01               0
GRID*               8941               0-1.000000000E+002.1375000000E+01+
*       1.8500000000E+01               0
GRID*               8942               01.8873791419E-152.0357142857E+01+
*       1.8500000000E+01               0
GRID*               8943               0-1.000000000E+001.9339285714E+01+
*       1.8500000000E+01               0
GRID*               8944               02.2204460493E-151.8321428571E+01+
*       1.8500000000E+01               0
GRID*               8945               0-1.000000000E+001.7303571429E+01+
*       1.8500000000E+01               0
GRID*               8946               0-3.705369345E-151.6285714286E+01+
*       1.8500000000E+01               0
GRID*               8947               0-1.000000000E+001.5267857143E+01+
*       1.8500000000E+01               0
GRID*               8948               00.0000000000E+001.4250000000E+01+
*       1.8500000000E+01               0
GRID*               8949               0-1.000000000E+001.3232142857E+01+
*       1.8500000000E+01               0
GRID*               8950               03.7053693447E-151.2214285714E+01+
*       1.8500000000E+01               0
GRID*               8951               0-1.000000000E+001.1196428571E+01+
*       1.8500000000E+01               0
GRID*               8952               05.7176485768E-151.0178571429E+01+
*       1.8500000000E+01               0
GRID*               8953               0-1.000000000E+009.1607142857E+00+
*       1.8500000000E+01               0
GRID*               8954               01.9484414082E-148.1428571429E+00+
*       1.8500000000E+01               0
GRID*               8955               0-1.000000000E+007.1250000000E+00+
*       1.8500000000E+01               0
GRID*               8956               00.0000000000E+006.1071428571E+00+
*       1.8500000000E+01               0
GRID*               8957               0-1.000000000E+005.0892857143E+00+
*       1.8500000000E+01               0
GRID*               8958               00.0000000000E+004.0714285714E+00+
*       1.8500000000E+01               0
GRID*               8959               0-1.000000000E+003.0535714286E+00+
*       1.8500000000E+01               0
GRID*               8960               00.0000000000E+002.0357142857E+00+
*       1.8500000000E+01               0
GRID*               8961               0-2.000000000E+002.6464285714E+01+
*       1.8500000000E+01               0
GRID*               8962               0-3.000000000E+002.5446428571E+01+
*       1.8500000000E+01               0
GRID*               8963               0-2.000000000E+002.4428571429E+01+
*       1.8500000000E+01               0
GRID*               8964               0-3.000000000E+002.3410714286E+01+
*       1.8500000000E+01               0
GRID*               8965               0-2.000000000E+002.2392857143E+01+
*       1.8500000000E+01               0
GRID*               8966               0-3.000000000E+002.1375000000E+01+
*       1.8500000000E+01               0
GRID*               8967               0-2.000000000E+002.0357142857E+01+
*       1.8500000000E+01               0
GRID*               8968               0-3.000000000E+001.9339285714E+01+
*       1.8500000000E+01               0
GRID*               8969               0-2.000000000E+001.8321428571E+01+
*       1.8500000000E+01               0
GRID*               8970               0-3.000000000E+001.7303571429E+01+
*       1.8500000000E+01               0
GRID*               8971               0-2.000000000E+001.6285714286E+01+
*       1.8500000000E+01               0
GRID*               8972               0-3.000000000E+001.5267857143E+01+
*       1.8500000000E+01               0
GRID*               8973               0-2.000000000E+001.4250000000E+01+
*       1.8500000000E+01               0
GRID*               8974               0-3.000000000E+001.3232142857E+01+
*       1.8500000000E+01               0
GRID*               8975               0-2.000000000E+001.2214285714E+01+
*       1.8500000000E+01               0
GRID*               8976               0-3.000000000E+001.1196428571E+01+
*       1.8500000000E+01               0
GRID*               8977               0-2.000000000E+001.0178571429E+01+
*       1.8500000000E+01               0
GRID*               8978               0-3.000000000E+009.1607142857E+00+
*       1.8500000000E+01               0
GRID*               8979               0-2.000000000E+008.1428571429E+00+
*       1.8500000000E+01               0
GRID*               8980               0-3.000000000E+007.1250000000E+00+
*       1.8500000000E+01               0
GRID*               8981               0-2.000000000E+006.1071428571E+00+
*       1.8500000000E+01               0
GRID*               8982               0-3.000000000E+005.0892857143E+00+
*       1.8500000000E+01               0
GRID*               8983               0-2.000000000E+004.0714285714E+00+
*       1.8500000000E+01               0
GRID*               8984               0-3.000000000E+003.0535714286E+00+
*       1.8500000000E+01               0
GRID*               8985               0-2.000000000E+002.0357142857E+00+
*       1.8500000000E+01               0
GRID*               8986               0-4.000000000E+002.6464285714E+01+
*       1.8500000000E+01               0
GRID*               8987               0-5.000000000E+002.5446428571E+01+
*       1.8500000000E+01               0
GRID*               8988               0-4.000000000E+002.4428571429E+01+
*       1.8500000000E+01               0
GRID*               8989               0-5.000000000E+002.3410714286E+01+
*       1.8500000000E+01               0
GRID*               8990               0-4.000000000E+002.2392857143E+01+
*       1.8500000000E+01               0
GRID*               8991               0-5.000000000E+002.1375000000E+01+
*       1.8500000000E+01               0
GRID*               8992               0-4.000000000E+002.0357142857E+01+
*       1.8500000000E+01               0
GRID*               8993               0-5.000000000E+001.9339285714E+01+
*       1.8500000000E+01               0
GRID*               8994               0-4.000000000E+001.8321428571E+01+
*       1.8500000000E+01               0
GRID*               8995               0-5.000000000E+001.7303571429E+01+
*       1.8500000000E+01               0
GRID*               8996               0-4.000000000E+001.6285714286E+01+
*       1.8500000000E+01               0
GRID*               8997               0-5.000000000E+001.5267857143E+01+
*       1.8500000000E+01               0
GRID*               8998               0-4.000000000E+001.4250000000E+01+
*       1.8500000000E+01               0
GRID*               8999               0-5.000000000E+001.3232142857E+01+
*       1.8500000000E+01               0
GRID*               9000               0-4.000000000E+001.2214285714E+01+
*       1.8500000000E+01               0
GRID*               9001               0-5.000000000E+001.1196428571E+01+
*       1.8500000000E+01               0
GRID*               9002               0-4.000000000E+001.0178571429E+01+
*       1.8500000000E+01               0
GRID*               9003               0-5.000000000E+009.1607142857E+00+
*       1.8500000000E+01               0
GRID*               9004               0-4.000000000E+008.1428571429E+00+
*       1.8500000000E+01               0
GRID*               9005               0-5.000000000E+007.1250000000E+00+
*       1.8500000000E+01               0
GRID*               9006               0-4.000000000E+006.1071428571E+00+
*       1.8500000000E+01               0
GRID*               9007               0-5.000000000E+005.0892857143E+00+
*       1.8500000000E+01               0
GRID*               9008               0-4.000000000E+004.0714285714E+00+
*       1.8500000000E+01               0
GRID*               9009               0-5.000000000E+003.0535714286E+00+
*       1.8500000000E+01               0
GRID*               9010               0-4.000000000E+002.0357142857E+00+
*       1.8500000000E+01               0
GRID*               9011               0-6.000000000E+002.6464285714E+01+
*       1.8500000000E+01               0
GRID*               9012               0-7.000000000E+002.5446428571E+01+
*       1.8500000000E+01               0
GRID*               9013               0-6.000000000E+002.4428571429E+01+
*       1.8500000000E+01               0
GRID*               9014               0-7.000000000E+002.3410714286E+01+
*       1.8500000000E+01               0
GRID*               9015               0-6.000000000E+002.2392857143E+01+
*       1.8500000000E+01               0
GRID*               9016               0-7.000000000E+002.1375000000E+01+
*       1.8500000000E+01               0
GRID*               9017               0-6.000000000E+002.0357142857E+01+
*       1.8500000000E+01               0
GRID*               9018               0-7.000000000E+001.9339285714E+01+
*       1.8500000000E+01               0
GRID*               9019               0-6.000000000E+001.8321428571E+01+
*       1.8500000000E+01               0
GRID*               9020               0-7.000000000E+001.7303571429E+01+
*       1.8500000000E+01               0
GRID*               9021               0-6.000000000E+001.6285714286E+01+
*       1.8500000000E+01               0
GRID*               9022               0-7.000000000E+001.5267857143E+01+
*       1.8500000000E+01               0
GRID*               9023               0-6.000000000E+001.4250000000E+01+
*       1.8500000000E+01               0
GRID*               9024               0-7.000000000E+001.3232142857E+01+
*       1.8500000000E+01               0
GRID*               9025               0-6.000000000E+001.2214285714E+01+
*       1.8500000000E+01               0
GRID*               9026               0-7.000000000E+001.1196428571E+01+
*       1.8500000000E+01               0
GRID*               9027               0-6.000000000E+001.0178571429E+01+
*       1.8500000000E+01               0
GRID*               9028               0-7.000000000E+009.1607142857E+00+
*       1.8500000000E+01               0
GRID*               9029               0-6.000000000E+008.1428571429E+00+
*       1.8500000000E+01               0
GRID*               9030               0-7.000000000E+007.1250000000E+00+
*       1.8500000000E+01               0
GRID*               9031               0-6.000000000E+006.1071428571E+00+
*       1.8500000000E+01               0
GRID*               9032               0-7.000000000E+005.0892857143E+00+
*       1.8500000000E+01               0
GRID*               9033               0-6.000000000E+004.0714285714E+00+
*       1.8500000000E+01               0
GRID*               9034               0-7.000000000E+003.0535714286E+00+
*       1.8500000000E+01               0
GRID*               9035               0-6.000000000E+002.0357142857E+00+
*       1.8500000000E+01               0
GRID*               9036               0-8.000000000E+002.6464285714E+01+
*       1.8500000000E+01               0
GRID*               9037               0-9.000000000E+002.5446428571E+01+
*       1.8500000000E+01               0
GRID*               9038               0-8.000000000E+002.4428571429E+01+
*       1.8500000000E+01               0
GRID*               9039               0-9.000000000E+002.3410714286E+01+
*       1.8500000000E+01               0
GRID*               9040               0-8.000000000E+002.2392857143E+01+
*       1.8500000000E+01               0
GRID*               9041               0-9.000000000E+002.1375000000E+01+
*       1.8500000000E+01               0
GRID*               9042               0-8.000000000E+002.0357142857E+01+
*       1.8500000000E+01               0
GRID*               9043               0-9.000000000E+001.9339285714E+01+
*       1.8500000000E+01               0
GRID*               9044               0-8.000000000E+001.8321428571E+01+
*       1.8500000000E+01               0
GRID*               9045               0-9.000000000E+001.7303571429E+01+
*       1.8500000000E+01               0
GRID*               9046               0-8.000000000E+001.6285714286E+01+
*       1.8500000000E+01               0
GRID*               9047               0-9.000000000E+001.5267857143E+01+
*       1.8500000000E+01               0
GRID*               9048               0-8.000000000E+001.4250000000E+01+
*       1.8500000000E+01               0
GRID*               9049               0-9.000000000E+001.3232142857E+01+
*       1.8500000000E+01               0
GRID*               9050               0-8.000000000E+001.2214285714E+01+
*       1.8500000000E+01               0
GRID*               9051               0-9.000000000E+001.1196428571E+01+
*       1.8500000000E+01               0
GRID*               9052               0-8.000000000E+001.0178571429E+01+
*       1.8500000000E+01               0
GRID*               9053               0-9.000000000E+009.1607142857E+00+
*       1.8500000000E+01               0
GRID*               9054               0-8.000000000E+008.1428571429E+00+
*       1.8500000000E+01               0
GRID*               9055               0-9.000000000E+007.1250000000E+00+
*       1.8500000000E+01               0
GRID*               9056               0-8.000000000E+006.1071428571E+00+
*       1.8500000000E+01               0
GRID*               9057               0-9.000000000E+005.0892857143E+00+
*       1.8500000000E+01               0
GRID*               9058               0-8.000000000E+004.0714285714E+00+
*       1.8500000000E+01               0
GRID*               9059               0-9.000000000E+003.0535714286E+00+
*       1.8500000000E+01               0
GRID*               9060               0-8.000000000E+002.0357142857E+00+
*       1.8500000000E+01               0
GRID*               9061               0-1.000000000E+012.6464285714E+01+
*       1.8500000000E+01               0
GRID*               9062               0-1.100000000E+012.5446428571E+01+
*       1.8500000000E+01               0
GRID*               9063               0-1.000000000E+012.4428571429E+01+
*       1.8500000000E+01               0
GRID*               9064               0-1.100000000E+012.3410714286E+01+
*       1.8500000000E+01               0
GRID*               9065               0-1.000000000E+012.2392857143E+01+
*       1.8500000000E+01               0
GRID*               9066               0-1.100000000E+012.1375000000E+01+
*       1.8500000000E+01               0
GRID*               9067               0-1.000000000E+012.0357142857E+01+
*       1.8500000000E+01               0
GRID*               9068               0-1.100000000E+011.9339285714E+01+
*       1.8500000000E+01               0
GRID*               9069               0-1.000000000E+011.8321428571E+01+
*       1.8500000000E+01               0
GRID*               9070               0-1.100000000E+011.7303571429E+01+
*       1.8500000000E+01               0
GRID*               9071               0-1.000000000E+011.6285714286E+01+
*       1.8500000000E+01               0
GRID*               9072               0-1.100000000E+011.5267857143E+01+
*       1.8500000000E+01               0
GRID*               9073               0-1.000000000E+011.4250000000E+01+
*       1.8500000000E+01               0
GRID*               9074               0-1.100000000E+011.3232142857E+01+
*       1.8500000000E+01               0
GRID*               9075               0-1.000000000E+011.2214285714E+01+
*       1.8500000000E+01               0
GRID*               9076               0-1.100000000E+011.1196428571E+01+
*       1.8500000000E+01               0
GRID*               9077               0-1.000000000E+011.0178571429E+01+
*       1.8500000000E+01               0
GRID*               9078               0-1.100000000E+019.1607142857E+00+
*       1.8500000000E+01               0
GRID*               9079               0-1.000000000E+018.1428571429E+00+
*       1.8500000000E+01               0
GRID*               9080               0-1.100000000E+017.1250000000E+00+
*       1.8500000000E+01               0
GRID*               9081               0-1.000000000E+016.1071428571E+00+
*       1.8500000000E+01               0
GRID*               9082               0-1.100000000E+015.0892857143E+00+
*       1.8500000000E+01               0
GRID*               9083               0-1.000000000E+014.0714285714E+00+
*       1.8500000000E+01               0
GRID*               9084               0-1.100000000E+013.0535714286E+00+
*       1.8500000000E+01               0
GRID*               9085               0-1.000000000E+012.0357142857E+00+
*       1.8500000000E+01               0
GRID*               9086               0-1.200000000E+012.6464285714E+01+
*       1.8500000000E+01               0
GRID*               9087               0-1.300000000E+012.5446428571E+01+
*       1.8500000000E+01               0
GRID*               9088               0-1.200000000E+012.4428571429E+01+
*       1.8500000000E+01               0
GRID*               9089               0-1.300000000E+012.3410714286E+01+
*       1.8500000000E+01               0
GRID*               9090               0-1.200000000E+012.2392857143E+01+
*       1.8500000000E+01               0
GRID*               9091               0-1.300000000E+012.1375000000E+01+
*       1.8500000000E+01               0
GRID*               9092               0-1.200000000E+012.0357142857E+01+
*       1.8500000000E+01               0
GRID*               9093               0-1.300000000E+011.9339285714E+01+
*       1.8500000000E+01               0
GRID*               9094               0-1.200000000E+011.8321428571E+01+
*       1.8500000000E+01               0
GRID*               9095               0-1.300000000E+011.7303571429E+01+
*       1.8500000000E+01               0
GRID*               9096               0-1.200000000E+011.6285714286E+01+
*       1.8500000000E+01               0
GRID*               9097               0-1.300000000E+011.5267857143E+01+
*       1.8500000000E+01               0
GRID*               9098               0-1.200000000E+011.4250000000E+01+
*       1.8500000000E+01               0
GRID*               9099               0-1.300000000E+011.3232142857E+01+
*       1.8500000000E+01               0
GRID*               9100               0-1.200000000E+011.2214285714E+01+
*       1.8500000000E+01               0
GRID*               9101               0-1.300000000E+011.1196428571E+01+
*       1.8500000000E+01               0
GRID*               9102               0-1.200000000E+011.0178571429E+01+
*       1.8500000000E+01               0
GRID*               9103               0-1.300000000E+019.1607142857E+00+
*       1.8500000000E+01               0
GRID*               9104               0-1.200000000E+018.1428571429E+00+
*       1.8500000000E+01               0
GRID*               9105               0-1.300000000E+017.1250000000E+00+
*       1.8500000000E+01               0
GRID*               9106               0-1.200000000E+016.1071428571E+00+
*       1.8500000000E+01               0
GRID*               9107               0-1.300000000E+015.0892857143E+00+
*       1.8500000000E+01               0
GRID*               9108               0-1.200000000E+014.0714285714E+00+
*       1.8500000000E+01               0
GRID*               9109               0-1.300000000E+013.0535714286E+00+
*       1.8500000000E+01               0
GRID*               9110               0-1.200000000E+012.0357142857E+00+
*       1.8500000000E+01               0
GRID*               9111               0-1.400000000E+012.6464285714E+01+
*       1.8500000000E+01               0
GRID*               9112               0-1.500000000E+012.5446428571E+01+
*       1.8500000000E+01               0
GRID*               9113               0-1.400000000E+012.4428571429E+01+
*       1.8500000000E+01               0
GRID*               9114               0-1.500000000E+012.3410714286E+01+
*       1.8500000000E+01               0
GRID*               9115               0-1.400000000E+012.2392857143E+01+
*       1.8500000000E+01               0
GRID*               9116               0-1.500000000E+012.1375000000E+01+
*       1.8500000000E+01               0
GRID*               9117               0-1.400000000E+012.0357142857E+01+
*       1.8500000000E+01               0
GRID*               9118               0-1.500000000E+011.9339285714E+01+
*       1.8500000000E+01               0
GRID*               9119               0-1.400000000E+011.8321428571E+01+
*       1.8500000000E+01               0
GRID*               9120               0-1.500000000E+011.7303571429E+01+
*       1.8500000000E+01               0
GRID*               9121               0-1.400000000E+011.6285714286E+01+
*       1.8500000000E+01               0
GRID*               9122               0-1.500000000E+011.5267857143E+01+
*       1.8500000000E+01               0
GRID*               9123               0-1.400000000E+011.4250000000E+01+
*       1.8500000000E+01               0
GRID*               9124               0-1.500000000E+011.3232142857E+01+
*       1.8500000000E+01               0
GRID*               9125               0-1.400000000E+011.2214285714E+01+
*       1.8500000000E+01               0
GRID*               9126               0-1.500000000E+011.1196428571E+01+
*       1.8500000000E+01               0
GRID*               9127               0-1.400000000E+011.0178571429E+01+
*       1.8500000000E+01               0
GRID*               9128               0-1.500000000E+019.1607142857E+00+
*       1.8500000000E+01               0
GRID*               9129               0-1.400000000E+018.1428571429E+00+
*       1.8500000000E+01               0
GRID*               9130               0-1.500000000E+017.1250000000E+00+
*       1.8500000000E+01               0
GRID*               9131               0-1.400000000E+016.1071428571E+00+
*       1.8500000000E+01               0
GRID*               9132               0-1.500000000E+015.0892857143E+00+
*       1.8500000000E+01               0
GRID*               9133               0-1.400000000E+014.0714285714E+00+
*       1.8500000000E+01               0
GRID*               9134               0-1.500000000E+013.0535714286E+00+
*       1.8500000000E+01               0
GRID*               9135               0-1.400000000E+012.0357142857E+00+
*       1.8500000000E+01               0
GRID*               9136               0-1.600000000E+012.6464285714E+01+
*       1.8500000000E+01               0
GRID*               9137               0-1.700000000E+012.5446428571E+01+
*       1.8500000000E+01               0
GRID*               9138               0-1.600000000E+012.4428571429E+01+
*       1.8500000000E+01               0
GRID*               9139               0-1.700000000E+012.3410714286E+01+
*       1.8500000000E+01               0
GRID*               9140               0-1.600000000E+012.2392857143E+01+
*       1.8500000000E+01               0
GRID*               9141               0-1.700000000E+012.1375000000E+01+
*       1.8500000000E+01               0
GRID*               9142               0-1.600000000E+012.0357142857E+01+
*       1.8500000000E+01               0
GRID*               9143               0-1.700000000E+011.9339285714E+01+
*       1.8500000000E+01               0
GRID*               9144               0-1.600000000E+011.8321428571E+01+
*       1.8500000000E+01               0
GRID*               9145               0-1.700000000E+011.7303571429E+01+
*       1.8500000000E+01               0
GRID*               9146               0-1.600000000E+011.6285714286E+01+
*       1.8500000000E+01               0
GRID*               9147               0-1.700000000E+011.5267857143E+01+
*       1.8500000000E+01               0
GRID*               9148               0-1.600000000E+011.4250000000E+01+
*       1.8500000000E+01               0
GRID*               9149               0-1.700000000E+011.3232142857E+01+
*       1.8500000000E+01               0
GRID*               9150               0-1.600000000E+011.2214285714E+01+
*       1.8500000000E+01               0
GRID*               9151               0-1.700000000E+011.1196428571E+01+
*       1.8500000000E+01               0
GRID*               9152               0-1.600000000E+011.0178571429E+01+
*       1.8500000000E+01               0
GRID*               9153               0-1.700000000E+019.1607142857E+00+
*       1.8500000000E+01               0
GRID*               9154               0-1.600000000E+018.1428571429E+00+
*       1.8500000000E+01               0
GRID*               9155               0-1.700000000E+017.1250000000E+00+
*       1.8500000000E+01               0
GRID*               9156               0-1.600000000E+016.1071428571E+00+
*       1.8500000000E+01               0
GRID*               9157               0-1.700000000E+015.0892857143E+00+
*       1.8500000000E+01               0
GRID*               9158               0-1.600000000E+014.0714285714E+00+
*       1.8500000000E+01               0
GRID*               9159               0-1.700000000E+013.0535714286E+00+
*       1.8500000000E+01               0
GRID*               9160               0-1.600000000E+012.0357142857E+00+
*       1.8500000000E+01               0
GRID*               9161               0-1.800000000E+012.6464285714E+01+
*       1.8500000000E+01               0
GRID*               9162               0-1.900000000E+012.5446428571E+01+
*       1.8500000000E+01               0
GRID*               9163               0-1.800000000E+012.4428571429E+01+
*       1.8500000000E+01               0
GRID*               9164               0-1.900000000E+012.3410714286E+01+
*       1.8500000000E+01               0
GRID*               9165               0-1.800000000E+012.2392857143E+01+
*       1.8500000000E+01               0
GRID*               9166               0-1.900000000E+012.1375000000E+01+
*       1.8500000000E+01               0
GRID*               9167               0-1.800000000E+012.0357142857E+01+
*       1.8500000000E+01               0
GRID*               9168               0-1.900000000E+011.9339285714E+01+
*       1.8500000000E+01               0
GRID*               9169               0-1.800000000E+011.8321428571E+01+
*       1.8500000000E+01               0
GRID*               9170               0-1.900000000E+011.7303571429E+01+
*       1.8500000000E+01               0
GRID*               9171               0-1.800000000E+011.6285714286E+01+
*       1.8500000000E+01               0
GRID*               9172               0-1.900000000E+011.5267857143E+01+
*       1.8500000000E+01               0
GRID*               9173               0-1.800000000E+011.4250000000E+01+
*       1.8500000000E+01               0
GRID*               9174               0-1.900000000E+011.3232142857E+01+
*       1.8500000000E+01               0
GRID*               9175               0-1.800000000E+011.2214285714E+01+
*       1.8500000000E+01               0
GRID*               9176               0-1.900000000E+011.1196428571E+01+
*       1.8500000000E+01               0
GRID*               9177               0-1.800000000E+011.0178571429E+01+
*       1.8500000000E+01               0
GRID*               9178               0-1.900000000E+019.1607142857E+00+
*       1.8500000000E+01               0
GRID*               9179               0-1.800000000E+018.1428571429E+00+
*       1.8500000000E+01               0
GRID*               9180               0-1.900000000E+017.1250000000E+00+
*       1.8500000000E+01               0
GRID*               9181               0-1.800000000E+016.1071428571E+00+
*       1.8500000000E+01               0
GRID*               9182               0-1.900000000E+015.0892857143E+00+
*       1.8500000000E+01               0
GRID*               9183               0-1.800000000E+014.0714285714E+00+
*       1.8500000000E+01               0
GRID*               9184               0-1.900000000E+013.0535714286E+00+
*       1.8500000000E+01               0
GRID*               9185               0-1.800000000E+012.0357142857E+00+
*       1.8500000000E+01               0
GRID*               9186               0-2.000000000E+012.6464285714E+01+
*       1.8500000000E+01               0
GRID*               9187               0-2.100000000E+012.5446428571E+01+
*       1.8500000000E+01               0
GRID*               9188               0-2.000000000E+012.4428571429E+01+
*       1.8500000000E+01               0
GRID*               9189               0-2.100000000E+012.3410714286E+01+
*       1.8500000000E+01               0
GRID*               9190               0-2.000000000E+012.2392857143E+01+
*       1.8500000000E+01               0
GRID*               9191               0-2.100000000E+012.1375000000E+01+
*       1.8500000000E+01               0
GRID*               9192               0-2.000000000E+012.0357142857E+01+
*       1.8500000000E+01               0
GRID*               9193               0-2.100000000E+011.9339285714E+01+
*       1.8500000000E+01               0
GRID*               9194               0-2.000000000E+011.8321428571E+01+
*       1.8500000000E+01               0
GRID*               9195               0-2.100000000E+011.7303571429E+01+
*       1.8500000000E+01               0
GRID*               9196               0-2.000000000E+011.6285714286E+01+
*       1.8500000000E+01               0
GRID*               9197               0-2.100000000E+011.5267857143E+01+
*       1.8500000000E+01               0
GRID*               9198               0-2.000000000E+011.4250000000E+01+
*       1.8500000000E+01               0
GRID*               9199               0-2.100000000E+011.3232142857E+01+
*       1.8500000000E+01               0
GRID*               9200               0-2.000000000E+011.2214285714E+01+
*       1.8500000000E+01               0
GRID*               9201               0-2.100000000E+011.1196428571E+01+
*       1.8500000000E+01               0
GRID*               9202               0-2.000000000E+011.0178571429E+01+
*       1.8500000000E+01               0
GRID*               9203               0-2.100000000E+019.1607142857E+00+
*       1.8500000000E+01               0
GRID*               9204               0-2.000000000E+018.1428571429E+00+
*       1.8500000000E+01               0
GRID*               9205               0-2.100000000E+017.1250000000E+00+
*       1.8500000000E+01               0
GRID*               9206               0-2.000000000E+016.1071428571E+00+
*       1.8500000000E+01               0
GRID*               9207               0-2.100000000E+015.0892857143E+00+
*       1.8500000000E+01               0
GRID*               9208               0-2.000000000E+014.0714285714E+00+
*       1.8500000000E+01               0
GRID*               9209               0-2.100000000E+013.0535714286E+00+
*       1.8500000000E+01               0
GRID*               9210               0-2.000000000E+012.0357142857E+00+
*       1.8500000000E+01               0
GRID*               9211               0-2.200000000E+012.6464285714E+01+
*       1.8500000000E+01               0
GRID*               9212               0-2.300000000E+012.5446428571E+01+
*       1.8500000000E+01               0
GRID*               9213               0-2.200000000E+012.4428571429E+01+
*       1.8500000000E+01               0
GRID*               9214               0-2.300000000E+012.3410714286E+01+
*       1.8500000000E+01               0
GRID*               9215               0-2.200000000E+012.2392857143E+01+
*       1.8500000000E+01               0
GRID*               9216               0-2.300000000E+012.1375000000E+01+
*       1.8500000000E+01               0
GRID*               9217               0-2.200000000E+012.0357142857E+01+
*       1.8500000000E+01               0
GRID*               9218               0-2.300000000E+011.9339285714E+01+
*       1.8500000000E+01               0
GRID*               9219               0-2.200000000E+011.8321428571E+01+
*       1.8500000000E+01               0
GRID*               9220               0-2.300000000E+011.7303571429E+01+
*       1.8500000000E+01               0
GRID*               9221               0-2.200000000E+011.6285714286E+01+
*       1.8500000000E+01               0
GRID*               9222               0-2.300000000E+011.5267857143E+01+
*       1.8500000000E+01               0
GRID*               9223               0-2.200000000E+011.4250000000E+01+
*       1.8500000000E+01               0
GRID*               9224               0-2.300000000E+011.3232142857E+01+
*       1.8500000000E+01               0
GRID*               9225               0-2.200000000E+011.2214285714E+01+
*       1.8500000000E+01               0
GRID*               9226               0-2.300000000E+011.1196428571E+01+
*       1.8500000000E+01               0
GRID*               9227               0-2.200000000E+011.0178571429E+01+
*       1.8500000000E+01               0
GRID*               9228               0-2.300000000E+019.1607142857E+00+
*       1.8500000000E+01               0
GRID*               9229               0-2.200000000E+018.1428571429E+00+
*       1.8500000000E+01               0
GRID*               9230               0-2.300000000E+017.1250000000E+00+
*       1.8500000000E+01               0
GRID*               9231               0-2.200000000E+016.1071428571E+00+
*       1.8500000000E+01               0
GRID*               9232               0-2.300000000E+015.0892857143E+00+
*       1.8500000000E+01               0
GRID*               9233               0-2.200000000E+014.0714285714E+00+
*       1.8500000000E+01               0
GRID*               9234               0-2.300000000E+013.0535714286E+00+
*       1.8500000000E+01               0
GRID*               9235               0-2.200000000E+012.0357142857E+00+
*       1.8500000000E+01               0
GRID*               9236               0-2.400000000E+012.6464285714E+01+
*       1.8500000000E+01               0
GRID*               9237               0-2.500000000E+012.5446428571E+01+
*       1.8500000000E+01               0
GRID*               9238               0-2.400000000E+012.4428571429E+01+
*       1.8500000000E+01               0
GRID*               9239               0-2.500000000E+012.3410714286E+01+
*       1.8500000000E+01               0
GRID*               9240               0-2.400000000E+012.2392857143E+01+
*       1.8500000000E+01               0
GRID*               9241               0-2.500000000E+012.1375000000E+01+
*       1.8500000000E+01               0
GRID*               9242               0-2.400000000E+012.0357142857E+01+
*       1.8500000000E+01               0
GRID*               9243               0-2.500000000E+011.9339285714E+01+
*       1.8500000000E+01               0
GRID*               9244               0-2.400000000E+011.8321428571E+01+
*       1.8500000000E+01               0
GRID*               9245               0-2.500000000E+011.7303571429E+01+
*       1.8500000000E+01               0
GRID*               9246               0-2.400000000E+011.6285714286E+01+
*       1.8500000000E+01               0
GRID*               9247               0-2.500000000E+011.5267857143E+01+
*       1.8500000000E+01               0
GRID*               9248               0-2.400000000E+011.4250000000E+01+
*       1.8500000000E+01               0
GRID*               9249               0-2.500000000E+011.3232142857E+01+
*       1.8500000000E+01               0
GRID*               9250               0-2.400000000E+011.2214285714E+01+
*       1.8500000000E+01               0
GRID*               9251               0-2.500000000E+011.1196428571E+01+
*       1.8500000000E+01               0
GRID*               9252               0-2.400000000E+011.0178571429E+01+
*       1.8500000000E+01               0
GRID*               9253               0-2.500000000E+019.1607142857E+00+
*       1.8500000000E+01               0
GRID*               9254               0-2.400000000E+018.1428571429E+00+
*       1.8500000000E+01               0
GRID*               9255               0-2.500000000E+017.1250000000E+00+
*       1.8500000000E+01               0
GRID*               9256               0-2.400000000E+016.1071428571E+00+
*       1.8500000000E+01               0
GRID*               9257               0-2.500000000E+015.0892857143E+00+
*       1.8500000000E+01               0
GRID*               9258               0-2.400000000E+014.0714285714E+00+
*       1.8500000000E+01               0
GRID*               9259               0-2.500000000E+013.0535714286E+00+
*       1.8500000000E+01               0
GRID*               9260               0-2.400000000E+012.0357142857E+00+
*       1.8500000000E+01               0
GRID*               9261               0-2.600000000E+012.6464285714E+01+
*       1.8500000000E+01               0
GRID*               9262               0-2.700000000E+012.5446428571E+01+
*       1.8500000000E+01               0
GRID*               9263               0-2.600000000E+012.4428571429E+01+
*       1.8500000000E+01               0
GRID*               9264               0-2.700000000E+012.3410714286E+01+
*       1.8500000000E+01               0
GRID*               9265               0-2.600000000E+012.2392857143E+01+
*       1.8500000000E+01               0
GRID*               9266               0-2.700000000E+012.1375000000E+01+
*       1.8500000000E+01               0
GRID*               9267               0-2.600000000E+012.0357142857E+01+
*       1.8500000000E+01               0
GRID*               9268               0-2.700000000E+011.9339285714E+01+
*       1.8500000000E+01               0
GRID*               9269               0-2.600000000E+011.8321428571E+01+
*       1.8500000000E+01               0
GRID*               9270               0-2.700000000E+011.7303571429E+01+
*       1.8500000000E+01               0
GRID*               9271               0-2.600000000E+011.6285714286E+01+
*       1.8500000000E+01               0
GRID*               9272               0-2.700000000E+011.5267857143E+01+
*       1.8500000000E+01               0
GRID*               9273               0-2.600000000E+011.4250000000E+01+
*       1.8500000000E+01               0
GRID*               9274               0-2.700000000E+011.3232142857E+01+
*       1.8500000000E+01               0
GRID*               9275               0-2.600000000E+011.2214285714E+01+
*       1.8500000000E+01               0
GRID*               9276               0-2.700000000E+011.1196428571E+01+
*       1.8500000000E+01               0
GRID*               9277               0-2.600000000E+011.0178571429E+01+
*       1.8500000000E+01               0
GRID*               9278               0-2.700000000E+019.1607142857E+00+
*       1.8500000000E+01               0
GRID*               9279               0-2.600000000E+018.1428571429E+00+
*       1.8500000000E+01               0
GRID*               9280               0-2.700000000E+017.1250000000E+00+
*       1.8500000000E+01               0
GRID*               9281               0-2.600000000E+016.1071428571E+00+
*       1.8500000000E+01               0
GRID*               9282               0-2.700000000E+015.0892857143E+00+
*       1.8500000000E+01               0
GRID*               9283               0-2.600000000E+014.0714285714E+00+
*       1.8500000000E+01               0
GRID*               9284               0-2.700000000E+013.0535714286E+00+
*       1.8500000000E+01               0
GRID*               9285               0-2.600000000E+012.0357142857E+00+
*       1.8500000000E+01               0
GRID*               9286               0-2.800000000E+012.6464285714E+01+
*       1.8500000000E+01               0
GRID*               9287               0-2.900000000E+012.5446428571E+01+
*       1.8500000000E+01               0
GRID*               9288               0-2.800000000E+012.4428571429E+01+
*       1.8500000000E+01               0
GRID*               9289               0-2.900000000E+012.3410714286E+01+
*       1.8500000000E+01               0
GRID*               9290               0-2.800000000E+012.2392857143E+01+
*       1.8500000000E+01               0
GRID*               9291               0-2.900000000E+012.1375000000E+01+
*       1.8500000000E+01               0
GRID*               9292               0-2.800000000E+012.0357142857E+01+
*       1.8500000000E+01               0
GRID*               9293               0-2.900000000E+011.9339285714E+01+
*       1.8500000000E+01               0
GRID*               9294               0-2.800000000E+011.8321428571E+01+
*       1.8500000000E+01               0
GRID*               9295               0-2.900000000E+011.7303571429E+01+
*       1.8500000000E+01               0
GRID*               9296               0-2.800000000E+011.6285714286E+01+
*       1.8500000000E+01               0
GRID*               9297               0-2.900000000E+011.5267857143E+01+
*       1.8500000000E+01               0
GRID*               9298               0-2.800000000E+011.4250000000E+01+
*       1.8500000000E+01               0
GRID*               9299               0-2.900000000E+011.3232142857E+01+
*       1.8500000000E+01               0
GRID*               9300               0-2.800000000E+011.2214285714E+01+
*       1.8500000000E+01               0
GRID*               9301               0-2.900000000E+011.1196428571E+01+
*       1.8500000000E+01               0
GRID*               9302               0-2.800000000E+011.0178571429E+01+
*       1.8500000000E+01               0
GRID*               9303               0-2.900000000E+019.1607142857E+00+
*       1.8500000000E+01               0
GRID*               9304               0-2.800000000E+018.1428571429E+00+
*       1.8500000000E+01               0
GRID*               9305               0-2.900000000E+017.1250000000E+00+
*       1.8500000000E+01               0
GRID*               9306               0-2.800000000E+016.1071428571E+00+
*       1.8500000000E+01               0
GRID*               9307               0-2.900000000E+015.0892857143E+00+
*       1.8500000000E+01               0
GRID*               9308               0-2.800000000E+014.0714285714E+00+
*       1.8500000000E+01               0
GRID*               9309               0-2.900000000E+013.0535714286E+00+
*       1.8500000000E+01               0
GRID*               9310               0-2.800000000E+012.0357142857E+00+
*       1.8500000000E+01               0
GRID*               9311               0-3.000000000E+012.6464285714E+01+
*       1.8500000000E+01               0
GRID*               9312               0-3.100000000E+012.5446428571E+01+
*       1.8500000000E+01               0
GRID*               9313               0-3.000000000E+012.4428571429E+01+
*       1.8500000000E+01               0
GRID*               9314               0-3.100000000E+012.3410714286E+01+
*       1.8500000000E+01               0
GRID*               9315               0-3.000000000E+012.2392857143E+01+
*       1.8500000000E+01               0
GRID*               9316               0-3.100000000E+012.1375000000E+01+
*       1.8500000000E+01               0
GRID*               9317               0-3.000000000E+012.0357142857E+01+
*       1.8500000000E+01               0
GRID*               9318               0-3.100000000E+011.9339285714E+01+
*       1.8500000000E+01               0
GRID*               9319               0-3.000000000E+011.8321428571E+01+
*       1.8500000000E+01               0
GRID*               9320               0-3.100000000E+011.7303571429E+01+
*       1.8500000000E+01               0
GRID*               9321               0-3.000000000E+011.6285714286E+01+
*       1.8500000000E+01               0
GRID*               9322               0-3.100000000E+011.5267857143E+01+
*       1.8500000000E+01               0
GRID*               9323               0-3.000000000E+011.4250000000E+01+
*       1.8500000000E+01               0
GRID*               9324               0-3.100000000E+011.3232142857E+01+
*       1.8500000000E+01               0
GRID*               9325               0-3.000000000E+011.2214285714E+01+
*       1.8500000000E+01               0
GRID*               9326               0-3.100000000E+011.1196428571E+01+
*       1.8500000000E+01               0
GRID*               9327               0-3.000000000E+011.0178571429E+01+
*       1.8500000000E+01               0
GRID*               9328               0-3.100000000E+019.1607142857E+00+
*       1.8500000000E+01               0
GRID*               9329               0-3.000000000E+018.1428571429E+00+
*       1.8500000000E+01               0
GRID*               9330               0-3.100000000E+017.1250000000E+00+
*       1.8500000000E+01               0
GRID*               9331               0-3.000000000E+016.1071428571E+00+
*       1.8500000000E+01               0
GRID*               9332               0-3.100000000E+015.0892857143E+00+
*       1.8500000000E+01               0
GRID*               9333               0-3.000000000E+014.0714285714E+00+
*       1.8500000000E+01               0
GRID*               9334               0-3.100000000E+013.0535714286E+00+
*       1.8500000000E+01               0
GRID*               9335               0-3.000000000E+012.0357142857E+00+
*       1.8500000000E+01               0
GRID*               9336               0-3.200000000E+012.6464285714E+01+
*       1.8500000000E+01               0
GRID*               9337               0-3.300000000E+012.5446428571E+01+
*       1.8500000000E+01               0
GRID*               9338               0-3.200000000E+012.4428571429E+01+
*       1.8500000000E+01               0
GRID*               9339               0-3.300000000E+012.3410714286E+01+
*       1.8500000000E+01               0
GRID*               9340               0-3.200000000E+012.2392857143E+01+
*       1.8500000000E+01               0
GRID*               9341               0-3.300000000E+012.1375000000E+01+
*       1.8500000000E+01               0
GRID*               9342               0-3.200000000E+012.0357142857E+01+
*       1.8500000000E+01               0
GRID*               9343               0-3.300000000E+011.9339285714E+01+
*       1.8500000000E+01               0
GRID*               9344               0-3.200000000E+011.8321428571E+01+
*       1.8500000000E+01               0
GRID*               9345               0-3.300000000E+011.7303571429E+01+
*       1.8500000000E+01               0
GRID*               9346               0-3.200000000E+011.6285714286E+01+
*       1.8500000000E+01               0
GRID*               9347               0-3.300000000E+011.5267857143E+01+
*       1.8500000000E+01               0
GRID*               9348               0-3.200000000E+011.4250000000E+01+
*       1.8500000000E+01               0
GRID*               9349               0-3.300000000E+011.3232142857E+01+
*       1.8500000000E+01               0
GRID*               9350               0-3.200000000E+011.2214285714E+01+
*       1.8500000000E+01               0
GRID*               9351               0-3.300000000E+011.1196428571E+01+
*       1.8500000000E+01               0
GRID*               9352               0-3.200000000E+011.0178571429E+01+
*       1.8500000000E+01               0
GRID*               9353               0-3.300000000E+019.1607142857E+00+
*       1.8500000000E+01               0
GRID*               9354               0-3.200000000E+018.1428571429E+00+
*       1.8500000000E+01               0
GRID*               9355               0-3.300000000E+017.1250000000E+00+
*       1.8500000000E+01               0
GRID*               9356               0-3.200000000E+016.1071428571E+00+
*       1.8500000000E+01               0
GRID*               9357               0-3.300000000E+015.0892857143E+00+
*       1.8500000000E+01               0
GRID*               9358               0-3.200000000E+014.0714285714E+00+
*       1.8500000000E+01               0
GRID*               9359               0-3.300000000E+013.0535714286E+00+
*       1.8500000000E+01               0
GRID*               9360               0-3.200000000E+012.0357142857E+00+
*       1.8500000000E+01               0
GRID*               9361               0-3.400000000E+012.6464285714E+01+
*       1.8500000000E+01               0
GRID*               9362               0-3.500000000E+012.5446428571E+01+
*       1.8500000000E+01               0
GRID*               9363               0-3.400000000E+012.4428571429E+01+
*       1.8500000000E+01               0
GRID*               9364               0-3.500000000E+012.3410714286E+01+
*       1.8500000000E+01               0
GRID*               9365               0-3.400000000E+012.2392857143E+01+
*       1.8500000000E+01               0
GRID*               9366               0-3.500000000E+012.1375000000E+01+
*       1.8500000000E+01               0
GRID*               9367               0-3.400000000E+012.0357142857E+01+
*       1.8500000000E+01               0
GRID*               9368               0-3.500000000E+011.9339285714E+01+
*       1.8500000000E+01               0
GRID*               9369               0-3.400000000E+011.8321428571E+01+
*       1.8500000000E+01               0
GRID*               9370               0-3.500000000E+011.7303571429E+01+
*       1.8500000000E+01               0
GRID*               9371               0-3.400000000E+011.6285714286E+01+
*       1.8500000000E+01               0
GRID*               9372               0-3.500000000E+011.5267857143E+01+
*       1.8500000000E+01               0
GRID*               9373               0-3.400000000E+011.4250000000E+01+
*       1.8500000000E+01               0
GRID*               9374               0-3.500000000E+011.3232142857E+01+
*       1.8500000000E+01               0
GRID*               9375               0-3.400000000E+011.2214285714E+01+
*       1.8500000000E+01               0
GRID*               9376               0-3.500000000E+011.1196428571E+01+
*       1.8500000000E+01               0
GRID*               9377               0-3.400000000E+011.0178571429E+01+
*       1.8500000000E+01               0
GRID*               9378               0-3.500000000E+019.1607142857E+00+
*       1.8500000000E+01               0
GRID*               9379               0-3.400000000E+018.1428571429E+00+
*       1.8500000000E+01               0
GRID*               9380               0-3.500000000E+017.1250000000E+00+
*       1.8500000000E+01               0
GRID*               9381               0-3.400000000E+016.1071428571E+00+
*       1.8500000000E+01               0
GRID*               9382               0-3.500000000E+015.0892857143E+00+
*       1.8500000000E+01               0
GRID*               9383               0-3.400000000E+014.0714285714E+00+
*       1.8500000000E+01               0
GRID*               9384               0-3.500000000E+013.0535714286E+00+
*       1.8500000000E+01               0
GRID*               9385               0-3.400000000E+012.0357142857E+00+
*       1.8500000000E+01               0
GRID*               9386               0-3.600000000E+012.6464285714E+01+
*       1.8500000000E+01               0
GRID*               9387               0-3.700000000E+012.5446428571E+01+
*       1.8500000000E+01               0
GRID*               9388               0-3.600000000E+012.4428571429E+01+
*       1.8500000000E+01               0
GRID*               9389               0-3.700000000E+012.3410714286E+01+
*       1.8500000000E+01               0
GRID*               9390               0-3.600000000E+012.2392857143E+01+
*       1.8500000000E+01               0
GRID*               9391               0-3.700000000E+012.1375000000E+01+
*       1.8500000000E+01               0
GRID*               9392               0-3.600000000E+012.0357142857E+01+
*       1.8500000000E+01               0
GRID*               9393               0-3.700000000E+011.9339285714E+01+
*       1.8500000000E+01               0
GRID*               9394               0-3.600000000E+011.8321428571E+01+
*       1.8500000000E+01               0
GRID*               9395               0-3.700000000E+011.7303571429E+01+
*       1.8500000000E+01               0
GRID*               9396               0-3.600000000E+011.6285714286E+01+
*       1.8500000000E+01               0
GRID*               9397               0-3.700000000E+011.5267857143E+01+
*       1.8500000000E+01               0
GRID*               9398               0-3.600000000E+011.4250000000E+01+
*       1.8500000000E+01               0
GRID*               9399               0-3.700000000E+011.3232142857E+01+
*       1.8500000000E+01               0
GRID*               9400               0-3.600000000E+011.2214285714E+01+
*       1.8500000000E+01               0
GRID*               9401               0-3.700000000E+011.1196428571E+01+
*       1.8500000000E+01               0
GRID*               9402               0-3.600000000E+011.0178571429E+01+
*       1.8500000000E+01               0
GRID*               9403               0-3.700000000E+019.1607142857E+00+
*       1.8500000000E+01               0
GRID*               9404               0-3.600000000E+018.1428571429E+00+
*       1.8500000000E+01               0
GRID*               9405               0-3.700000000E+017.1250000000E+00+
*       1.8500000000E+01               0
GRID*               9406               0-3.600000000E+016.1071428571E+00+
*       1.8500000000E+01               0
GRID*               9407               0-3.700000000E+015.0892857143E+00+
*       1.8500000000E+01               0
GRID*               9408               0-3.600000000E+014.0714285714E+00+
*       1.8500000000E+01               0
GRID*               9409               0-3.700000000E+013.0535714286E+00+
*       1.8500000000E+01               0
GRID*               9410               0-3.600000000E+012.0357142857E+00+
*       1.8500000000E+01               0
GRID*               9411               0-3.800000000E+012.6464285714E+01+
*       1.8500000000E+01               0
GRID*               9412               0-3.900000000E+012.5446428571E+01+
*       1.8500000000E+01               0
GRID*               9413               0-3.800000000E+012.4428571429E+01+
*       1.8500000000E+01               0
GRID*               9414               0-3.900000000E+012.3410714286E+01+
*       1.8500000000E+01               0
GRID*               9415               0-3.800000000E+012.2392857143E+01+
*       1.8500000000E+01               0
GRID*               9416               0-3.900000000E+012.1375000000E+01+
*       1.8500000000E+01               0
GRID*               9417               0-3.800000000E+012.0357142857E+01+
*       1.8500000000E+01               0
GRID*               9418               0-3.900000000E+011.9339285714E+01+
*       1.8500000000E+01               0
GRID*               9419               0-3.800000000E+011.8321428571E+01+
*       1.8500000000E+01               0
GRID*               9420               0-3.900000000E+011.7303571429E+01+
*       1.8500000000E+01               0
GRID*               9421               0-3.800000000E+011.6285714286E+01+
*       1.8500000000E+01               0
GRID*               9422               0-3.900000000E+011.5267857143E+01+
*       1.8500000000E+01               0
GRID*               9423               0-3.800000000E+011.4250000000E+01+
*       1.8500000000E+01               0
GRID*               9424               0-3.900000000E+011.3232142857E+01+
*       1.8500000000E+01               0
GRID*               9425               0-3.800000000E+011.2214285714E+01+
*       1.8500000000E+01               0
GRID*               9426               0-3.900000000E+011.1196428571E+01+
*       1.8500000000E+01               0
GRID*               9427               0-3.800000000E+011.0178571429E+01+
*       1.8500000000E+01               0
GRID*               9428               0-3.900000000E+019.1607142857E+00+
*       1.8500000000E+01               0
GRID*               9429               0-3.800000000E+018.1428571429E+00+
*       1.8500000000E+01               0
GRID*               9430               0-3.900000000E+017.1250000000E+00+
*       1.8500000000E+01               0
GRID*               9431               0-3.800000000E+016.1071428571E+00+
*       1.8500000000E+01               0
GRID*               9432               0-3.900000000E+015.0892857143E+00+
*       1.8500000000E+01               0
GRID*               9433               0-3.800000000E+014.0714285714E+00+
*       1.8500000000E+01               0
GRID*               9434               0-3.900000000E+013.0535714286E+00+
*       1.8500000000E+01               0
GRID*               9435               0-3.800000000E+012.0357142857E+00+
*       1.8500000000E+01               0
GRID*               9436               0-4.000000000E+012.6464285714E+01+
*       1.8500000000E+01               0
GRID*               9437               0-4.100000000E+012.5446428571E+01+
*       1.8500000000E+01               0
GRID*               9438               0-4.000000000E+012.4428571429E+01+
*       1.8500000000E+01               0
GRID*               9439               0-4.100000000E+012.3410714286E+01+
*       1.8500000000E+01               0
GRID*               9440               0-4.000000000E+012.2392857143E+01+
*       1.8500000000E+01               0
GRID*               9441               0-4.100000000E+012.1375000000E+01+
*       1.8500000000E+01               0
GRID*               9442               0-4.000000000E+012.0357142857E+01+
*       1.8500000000E+01               0
GRID*               9443               0-4.100000000E+011.9339285714E+01+
*       1.8500000000E+01               0
GRID*               9444               0-4.000000000E+011.8321428571E+01+
*       1.8500000000E+01               0
GRID*               9445               0-4.100000000E+011.7303571429E+01+
*       1.8500000000E+01               0
GRID*               9446               0-4.000000000E+011.6285714286E+01+
*       1.8500000000E+01               0
GRID*               9447               0-4.100000000E+011.5267857143E+01+
*       1.8500000000E+01               0
GRID*               9448               0-4.000000000E+011.4250000000E+01+
*       1.8500000000E+01               0
GRID*               9449               0-4.100000000E+011.3232142857E+01+
*       1.8500000000E+01               0
GRID*               9450               0-4.000000000E+011.2214285714E+01+
*       1.8500000000E+01               0
GRID*               9451               0-4.100000000E+011.1196428571E+01+
*       1.8500000000E+01               0
GRID*               9452               0-4.000000000E+011.0178571429E+01+
*       1.8500000000E+01               0
GRID*               9453               0-4.100000000E+019.1607142857E+00+
*       1.8500000000E+01               0
GRID*               9454               0-4.000000000E+018.1428571429E+00+
*       1.8500000000E+01               0
GRID*               9455               0-4.100000000E+017.1250000000E+00+
*       1.8500000000E+01               0
GRID*               9456               0-4.000000000E+016.1071428571E+00+
*       1.8500000000E+01               0
GRID*               9457               0-4.100000000E+015.0892857143E+00+
*       1.8500000000E+01               0
GRID*               9458               0-4.000000000E+014.0714285714E+00+
*       1.8500000000E+01               0
GRID*               9459               0-4.100000000E+013.0535714286E+00+
*       1.8500000000E+01               0
GRID*               9460               0-4.000000000E+012.0357142857E+00+
*       1.8500000000E+01               0
GRID*               9461               0-4.200000000E+012.6464285714E+01+
*       1.8500000000E+01               0
GRID*               9462               0-4.300000000E+012.5446428571E+01+
*       1.8500000000E+01               0
GRID*               9463               0-4.200000000E+012.4428571429E+01+
*       1.8500000000E+01               0
GRID*               9464               0-4.300000000E+012.3410714286E+01+
*       1.8500000000E+01               0
GRID*               9465               0-4.200000000E+012.2392857143E+01+
*       1.8500000000E+01               0
GRID*               9466               0-4.300000000E+012.1375000000E+01+
*       1.8500000000E+01               0
GRID*               9467               0-4.200000000E+012.0357142857E+01+
*       1.8500000000E+01               0
GRID*               9468               0-4.300000000E+011.9339285714E+01+
*       1.8500000000E+01               0
GRID*               9469               0-4.200000000E+011.8321428571E+01+
*       1.8500000000E+01               0
GRID*               9470               0-4.300000000E+011.7303571429E+01+
*       1.8500000000E+01               0
GRID*               9471               0-4.200000000E+011.6285714286E+01+
*       1.8500000000E+01               0
GRID*               9472               0-4.300000000E+011.5267857143E+01+
*       1.8500000000E+01               0
GRID*               9473               0-4.200000000E+011.4250000000E+01+
*       1.8500000000E+01               0
GRID*               9474               0-4.300000000E+011.3232142857E+01+
*       1.8500000000E+01               0
GRID*               9475               0-4.200000000E+011.2214285714E+01+
*       1.8500000000E+01               0
GRID*               9476               0-4.300000000E+011.1196428571E+01+
*       1.8500000000E+01               0
GRID*               9477               0-4.200000000E+011.0178571429E+01+
*       1.8500000000E+01               0
GRID*               9478               0-4.300000000E+019.1607142857E+00+
*       1.8500000000E+01               0
GRID*               9479               0-4.200000000E+018.1428571429E+00+
*       1.8500000000E+01               0
GRID*               9480               0-4.300000000E+017.1250000000E+00+
*       1.8500000000E+01               0
GRID*               9481               0-4.200000000E+016.1071428571E+00+
*       1.8500000000E+01               0
GRID*               9482               0-4.300000000E+015.0892857143E+00+
*       1.8500000000E+01               0
GRID*               9483               0-4.200000000E+014.0714285714E+00+
*       1.8500000000E+01               0
GRID*               9484               0-4.300000000E+013.0535714286E+00+
*       1.8500000000E+01               0
GRID*               9485               0-4.200000000E+012.0357142857E+00+
*       1.8500000000E+01               0
GRID*               9486               0-4.400000000E+012.6464285714E+01+
*       1.8500000000E+01               0
GRID*               9487               0-4.500000000E+012.5446428571E+01+
*       1.8500000000E+01               0
GRID*               9488               0-4.400000000E+012.4428571429E+01+
*       1.8500000000E+01               0
GRID*               9489               0-4.500000000E+012.3410714286E+01+
*       1.8500000000E+01               0
GRID*               9490               0-4.400000000E+012.2392857143E+01+
*       1.8500000000E+01               0
GRID*               9491               0-4.500000000E+012.1375000000E+01+
*       1.8500000000E+01               0
GRID*               9492               0-4.400000000E+012.0357142857E+01+
*       1.8500000000E+01               0
GRID*               9493               0-4.500000000E+011.9339285714E+01+
*       1.8500000000E+01               0
GRID*               9494               0-4.400000000E+011.8321428571E+01+
*       1.8500000000E+01               0
GRID*               9495               0-4.500000000E+011.7303571429E+01+
*       1.8500000000E+01               0
GRID*               9496               0-4.400000000E+011.6285714286E+01+
*       1.8500000000E+01               0
GRID*               9497               0-4.500000000E+011.5267857143E+01+
*       1.8500000000E+01               0
GRID*               9498               0-4.400000000E+011.4250000000E+01+
*       1.8500000000E+01               0
GRID*               9499               0-4.500000000E+011.3232142857E+01+
*       1.8500000000E+01               0
GRID*               9500               0-4.400000000E+011.2214285714E+01+
*       1.8500000000E+01               0
GRID*               9501               0-4.500000000E+011.1196428571E+01+
*       1.8500000000E+01               0
GRID*               9502               0-4.400000000E+011.0178571429E+01+
*       1.8500000000E+01               0
GRID*               9503               0-4.500000000E+019.1607142857E+00+
*       1.8500000000E+01               0
GRID*               9504               0-4.400000000E+018.1428571429E+00+
*       1.8500000000E+01               0
GRID*               9505               0-4.500000000E+017.1250000000E+00+
*       1.8500000000E+01               0
GRID*               9506               0-4.400000000E+016.1071428571E+00+
*       1.8500000000E+01               0
GRID*               9507               0-4.500000000E+015.0892857143E+00+
*       1.8500000000E+01               0
GRID*               9508               0-4.400000000E+014.0714285714E+00+
*       1.8500000000E+01               0
GRID*               9509               0-4.500000000E+013.0535714286E+00+
*       1.8500000000E+01               0
GRID*               9510               0-4.400000000E+012.0357142857E+00+
*       1.8500000000E+01               0
GRID*               9511               0-4.600000000E+012.6464285714E+01+
*       1.8500000000E+01               0
GRID*               9512               0-4.700000000E+012.5446428571E+01+
*       1.8500000000E+01               0
GRID*               9513               0-4.600000000E+012.4428571429E+01+
*       1.8500000000E+01               0
GRID*               9514               0-4.700000000E+012.3410714286E+01+
*       1.8500000000E+01               0
GRID*               9515               0-4.600000000E+012.2392857143E+01+
*       1.8500000000E+01               0
GRID*               9516               0-4.700000000E+012.1375000000E+01+
*       1.8500000000E+01               0
GRID*               9517               0-4.600000000E+012.0357142857E+01+
*       1.8500000000E+01               0
GRID*               9518               0-4.700000000E+011.9339285714E+01+
*       1.8500000000E+01               0
GRID*               9519               0-4.600000000E+011.8321428571E+01+
*       1.8500000000E+01               0
GRID*               9520               0-4.700000000E+011.7303571429E+01+
*       1.8500000000E+01               0
GRID*               9521               0-4.600000000E+011.6285714286E+01+
*       1.8500000000E+01               0
GRID*               9522               0-4.700000000E+011.5267857143E+01+
*       1.8500000000E+01               0
GRID*               9523               0-4.600000000E+011.4250000000E+01+
*       1.8500000000E+01               0
GRID*               9524               0-4.700000000E+011.3232142857E+01+
*       1.8500000000E+01               0
GRID*               9525               0-4.600000000E+011.2214285714E+01+
*       1.8500000000E+01               0
GRID*               9526               0-4.700000000E+011.1196428571E+01+
*       1.8500000000E+01               0
GRID*               9527               0-4.600000000E+011.0178571429E+01+
*       1.8500000000E+01               0
GRID*               9528               0-4.700000000E+019.1607142857E+00+
*       1.8500000000E+01               0
GRID*               9529               0-4.600000000E+018.1428571429E+00+
*       1.8500000000E+01               0
GRID*               9530               0-4.700000000E+017.1250000000E+00+
*       1.8500000000E+01               0
GRID*               9531               0-4.600000000E+016.1071428571E+00+
*       1.8500000000E+01               0
GRID*               9532               0-4.700000000E+015.0892857143E+00+
*       1.8500000000E+01               0
GRID*               9533               0-4.600000000E+014.0714285714E+00+
*       1.8500000000E+01               0
GRID*               9534               0-4.700000000E+013.0535714286E+00+
*       1.8500000000E+01               0
GRID*               9535               0-4.600000000E+012.0357142857E+00+
*       1.8500000000E+01               0
GRID*               9536               0-4.800000000E+012.6464285714E+01+
*       1.8500000000E+01               0
GRID*               9537               0-4.900000000E+012.5446428571E+01+
*       1.8500000000E+01               0
GRID*               9538               0-4.800000000E+012.4428571429E+01+
*       1.8500000000E+01               0
GRID*               9539               0-4.900000000E+012.3410714286E+01+
*       1.8500000000E+01               0
GRID*               9540               0-4.800000000E+012.2392857143E+01+
*       1.8500000000E+01               0
GRID*               9541               0-4.900000000E+012.1375000000E+01+
*       1.8500000000E+01               0
GRID*               9542               0-4.800000000E+012.0357142857E+01+
*       1.8500000000E+01               0
GRID*               9543               0-4.900000000E+011.9339285714E+01+
*       1.8500000000E+01               0
GRID*               9544               0-4.800000000E+011.8321428571E+01+
*       1.8500000000E+01               0
GRID*               9545               0-4.900000000E+011.7303571429E+01+
*       1.8500000000E+01               0
GRID*               9546               0-4.800000000E+011.6285714286E+01+
*       1.8500000000E+01               0
GRID*               9547               0-4.900000000E+011.5267857143E+01+
*       1.8500000000E+01               0
GRID*               9548               0-4.800000000E+011.4250000000E+01+
*       1.8500000000E+01               0
GRID*               9549               0-4.900000000E+011.3232142857E+01+
*       1.8500000000E+01               0
GRID*               9550               0-4.800000000E+011.2214285714E+01+
*       1.8500000000E+01               0
GRID*               9551               0-4.900000000E+011.1196428571E+01+
*       1.8500000000E+01               0
GRID*               9552               0-4.800000000E+011.0178571429E+01+
*       1.8500000000E+01               0
GRID*               9553               0-4.900000000E+019.1607142857E+00+
*       1.8500000000E+01               0
GRID*               9554               0-4.800000000E+018.1428571429E+00+
*       1.8500000000E+01               0
GRID*               9555               0-4.900000000E+017.1250000000E+00+
*       1.8500000000E+01               0
GRID*               9556               0-4.800000000E+016.1071428571E+00+
*       1.8500000000E+01               0
GRID*               9557               0-4.900000000E+015.0892857143E+00+
*       1.8500000000E+01               0
GRID*               9558               0-4.800000000E+014.0714285714E+00+
*       1.8500000000E+01               0
GRID*               9559               0-4.900000000E+013.0535714286E+00+
*       1.8500000000E+01               0
GRID*               9560               0-4.800000000E+012.0357142857E+00+
*       1.8500000000E+01               0
GRID*               9561               0-5.000000000E+012.6464285714E+01+
*       1.8500000000E+01               0
GRID*               9562               0-5.100000000E+012.5446428571E+01+
*       1.8500000000E+01               0
GRID*               9563               0-5.000000000E+012.4428571429E+01+
*       1.8500000000E+01               0
GRID*               9564               0-5.100000000E+012.3410714286E+01+
*       1.8500000000E+01               0
GRID*               9565               0-5.000000000E+012.2392857143E+01+
*       1.8500000000E+01               0
GRID*               9566               0-5.100000000E+012.1375000000E+01+
*       1.8500000000E+01               0
GRID*               9567               0-5.000000000E+012.0357142857E+01+
*       1.8500000000E+01               0
GRID*               9568               0-5.100000000E+011.9339285714E+01+
*       1.8500000000E+01               0
GRID*               9569               0-5.000000000E+011.8321428571E+01+
*       1.8500000000E+01               0
GRID*               9570               0-5.100000000E+011.7303571429E+01+
*       1.8500000000E+01               0
GRID*               9571               0-5.000000000E+011.6285714286E+01+
*       1.8500000000E+01               0
GRID*               9572               0-5.100000000E+011.5267857143E+01+
*       1.8500000000E+01               0
GRID*               9573               0-5.000000000E+011.4250000000E+01+
*       1.8500000000E+01               0
GRID*               9574               0-5.100000000E+011.3232142857E+01+
*       1.8500000000E+01               0
GRID*               9575               0-5.000000000E+011.2214285714E+01+
*       1.8500000000E+01               0
GRID*               9576               0-5.100000000E+011.1196428571E+01+
*       1.8500000000E+01               0
GRID*               9577               0-5.000000000E+011.0178571429E+01+
*       1.8500000000E+01               0
GRID*               9578               0-5.100000000E+019.1607142857E+00+
*       1.8500000000E+01               0
GRID*               9579               0-5.000000000E+018.1428571429E+00+
*       1.8500000000E+01               0
GRID*               9580               0-5.100000000E+017.1250000000E+00+
*       1.8500000000E+01               0
GRID*               9581               0-5.000000000E+016.1071428571E+00+
*       1.8500000000E+01               0
GRID*               9582               0-5.100000000E+015.0892857143E+00+
*       1.8500000000E+01               0
GRID*               9583               0-5.000000000E+014.0714285714E+00+
*       1.8500000000E+01               0
GRID*               9584               0-5.100000000E+013.0535714286E+00+
*       1.8500000000E+01               0
GRID*               9585               0-5.000000000E+012.0357142857E+00+
*       1.8500000000E+01               0
GRID*               9586               0-5.200000000E+012.6464285714E+01+
*       1.8500000000E+01               0
GRID*               9587               0-5.300000000E+012.5446428571E+01+
*       1.8500000000E+01               0
GRID*               9588               0-5.200000000E+012.4428571429E+01+
*       1.8500000000E+01               0
GRID*               9589               0-5.300000000E+012.3410714286E+01+
*       1.8500000000E+01               0
GRID*               9590               0-5.200000000E+012.2392857143E+01+
*       1.8500000000E+01               0
GRID*               9591               0-5.300000000E+012.1375000000E+01+
*       1.8500000000E+01               0
GRID*               9592               0-5.200000000E+012.0357142857E+01+
*       1.8500000000E+01               0
GRID*               9593               0-5.300000000E+011.9339285714E+01+
*       1.8500000000E+01               0
GRID*               9594               0-5.200000000E+011.8321428571E+01+
*       1.8500000000E+01               0
GRID*               9595               0-5.300000000E+011.7303571429E+01+
*       1.8500000000E+01               0
GRID*               9596               0-5.200000000E+011.6285714286E+01+
*       1.8500000000E+01               0
GRID*               9597               0-5.300000000E+011.5267857143E+01+
*       1.8500000000E+01               0
GRID*               9598               0-5.200000000E+011.4250000000E+01+
*       1.8500000000E+01               0
GRID*               9599               0-5.300000000E+011.3232142857E+01+
*       1.8500000000E+01               0
GRID*               9600               0-5.200000000E+011.2214285714E+01+
*       1.8500000000E+01               0
GRID*               9601               0-5.300000000E+011.1196428571E+01+
*       1.8500000000E+01               0
GRID*               9602               0-5.200000000E+011.0178571429E+01+
*       1.8500000000E+01               0
GRID*               9603               0-5.300000000E+019.1607142857E+00+
*       1.8500000000E+01               0
GRID*               9604               0-5.200000000E+018.1428571429E+00+
*       1.8500000000E+01               0
GRID*               9605               0-5.300000000E+017.1250000000E+00+
*       1.8500000000E+01               0
GRID*               9606               0-5.200000000E+016.1071428571E+00+
*       1.8500000000E+01               0
GRID*               9607               0-5.300000000E+015.0892857143E+00+
*       1.8500000000E+01               0
GRID*               9608               0-5.200000000E+014.0714285714E+00+
*       1.8500000000E+01               0
GRID*               9609               0-5.300000000E+013.0535714286E+00+
*       1.8500000000E+01               0
GRID*               9610               0-5.200000000E+012.0357142857E+00+
*       1.8500000000E+01               0
GRID*               9611               0-5.400000000E+012.6464285714E+01+
*       1.8500000000E+01               0
GRID*               9612               0-5.500000000E+012.5446428571E+01+
*       1.8500000000E+01               0
GRID*               9613               0-5.400000000E+012.4428571429E+01+
*       1.8500000000E+01               0
GRID*               9614               0-5.500000000E+012.3410714286E+01+
*       1.8500000000E+01               0
GRID*               9615               0-5.400000000E+012.2392857143E+01+
*       1.8500000000E+01               0
GRID*               9616               0-5.500000000E+012.1375000000E+01+
*       1.8500000000E+01               0
GRID*               9617               0-5.400000000E+012.0357142857E+01+
*       1.8500000000E+01               0
GRID*               9618               0-5.500000000E+011.9339285714E+01+
*       1.8500000000E+01               0
GRID*               9619               0-5.400000000E+011.8321428571E+01+
*       1.8500000000E+01               0
GRID*               9620               0-5.500000000E+011.7303571429E+01+
*       1.8500000000E+01               0
GRID*               9621               0-5.400000000E+011.6285714286E+01+
*       1.8500000000E+01               0
GRID*               9622               0-5.500000000E+011.5267857143E+01+
*       1.8500000000E+01               0
GRID*               9623               0-5.400000000E+011.4250000000E+01+
*       1.8500000000E+01               0
GRID*               9624               0-5.500000000E+011.3232142857E+01+
*       1.8500000000E+01               0
GRID*               9625               0-5.400000000E+011.2214285714E+01+
*       1.8500000000E+01               0
GRID*               9626               0-5.500000000E+011.1196428571E+01+
*       1.8500000000E+01               0
GRID*               9627               0-5.400000000E+011.0178571429E+01+
*       1.8500000000E+01               0
GRID*               9628               0-5.500000000E+019.1607142857E+00+
*       1.8500000000E+01               0
GRID*               9629               0-5.400000000E+018.1428571429E+00+
*       1.8500000000E+01               0
GRID*               9630               0-5.500000000E+017.1250000000E+00+
*       1.8500000000E+01               0
GRID*               9631               0-5.400000000E+016.1071428571E+00+
*       1.8500000000E+01               0
GRID*               9632               0-5.500000000E+015.0892857143E+00+
*       1.8500000000E+01               0
GRID*               9633               0-5.400000000E+014.0714285714E+00+
*       1.8500000000E+01               0
GRID*               9634               0-5.500000000E+013.0535714286E+00+
*       1.8500000000E+01               0
GRID*               9635               0-5.400000000E+012.0357142857E+00+
*       1.8500000000E+01               0
GRID*               9636               0-5.600000000E+012.6464285714E+01+
*       1.8500000000E+01               0
GRID*               9637               0-5.700000000E+012.5446428571E+01+
*       1.8500000000E+01               0
GRID*               9638               0-5.600000000E+012.4428571429E+01+
*       1.8500000000E+01               0
GRID*               9639               0-5.700000000E+012.3410714286E+01+
*       1.8500000000E+01               0
GRID*               9640               0-5.600000000E+012.2392857143E+01+
*       1.8500000000E+01               0
GRID*               9641               0-5.700000000E+012.1375000000E+01+
*       1.8500000000E+01               0
GRID*               9642               0-5.600000000E+012.0357142857E+01+
*       1.8500000000E+01               0
GRID*               9643               0-5.700000000E+011.9339285714E+01+
*       1.8500000000E+01               0
GRID*               9644               0-5.600000000E+011.8321428571E+01+
*       1.8500000000E+01               0
GRID*               9645               0-5.700000000E+011.7303571429E+01+
*       1.8500000000E+01               0
GRID*               9646               0-5.600000000E+011.6285714286E+01+
*       1.8500000000E+01               0
GRID*               9647               0-5.700000000E+011.5267857143E+01+
*       1.8500000000E+01               0
GRID*               9648               0-5.600000000E+011.4250000000E+01+
*       1.8500000000E+01               0
GRID*               9649               0-5.700000000E+011.3232142857E+01+
*       1.8500000000E+01               0
GRID*               9650               0-5.600000000E+011.2214285714E+01+
*       1.8500000000E+01               0
GRID*               9651               0-5.700000000E+011.1196428571E+01+
*       1.8500000000E+01               0
GRID*               9652               0-5.600000000E+011.0178571429E+01+
*       1.8500000000E+01               0
GRID*               9653               0-5.700000000E+019.1607142857E+00+
*       1.8500000000E+01               0
GRID*               9654               0-5.600000000E+018.1428571429E+00+
*       1.8500000000E+01               0
GRID*               9655               0-5.700000000E+017.1250000000E+00+
*       1.8500000000E+01               0
GRID*               9656               0-5.600000000E+016.1071428571E+00+
*       1.8500000000E+01               0
GRID*               9657               0-5.700000000E+015.0892857143E+00+
*       1.8500000000E+01               0
GRID*               9658               0-5.600000000E+014.0714285714E+00+
*       1.8500000000E+01               0
GRID*               9659               0-5.700000000E+013.0535714286E+00+
*       1.8500000000E+01               0
GRID*               9660               0-5.600000000E+012.0357142857E+00+
*       1.8500000000E+01               0
GRID*               9661               0-5.800000000E+012.6464285714E+01+
*       1.8500000000E+01               0
GRID*               9662               0-5.900000000E+012.5446428571E+01+
*       1.8500000000E+01               0
GRID*               9663               0-5.800000000E+012.4428571429E+01+
*       1.8500000000E+01               0
GRID*               9664               0-5.900000000E+012.3410714286E+01+
*       1.8500000000E+01               0
GRID*               9665               0-5.800000000E+012.2392857143E+01+
*       1.8500000000E+01               0
GRID*               9666               0-5.900000000E+012.1375000000E+01+
*       1.8500000000E+01               0
GRID*               9667               0-5.800000000E+012.0357142857E+01+
*       1.8500000000E+01               0
GRID*               9668               0-5.900000000E+011.9339285714E+01+
*       1.8500000000E+01               0
GRID*               9669               0-5.800000000E+011.8321428571E+01+
*       1.8500000000E+01               0
GRID*               9670               0-5.900000000E+011.7303571429E+01+
*       1.8500000000E+01               0
GRID*               9671               0-5.800000000E+011.6285714286E+01+
*       1.8500000000E+01               0
GRID*               9672               0-5.900000000E+011.5267857143E+01+
*       1.8500000000E+01               0
GRID*               9673               0-5.800000000E+011.4250000000E+01+
*       1.8500000000E+01               0
GRID*               9674               0-5.900000000E+011.3232142857E+01+
*       1.8500000000E+01               0
GRID*               9675               0-5.800000000E+011.2214285714E+01+
*       1.8500000000E+01               0
GRID*               9676               0-5.900000000E+011.1196428571E+01+
*       1.8500000000E+01               0
GRID*               9677               0-5.800000000E+011.0178571429E+01+
*       1.8500000000E+01               0
GRID*               9678               0-5.900000000E+019.1607142857E+00+
*       1.8500000000E+01               0
GRID*               9679               0-5.800000000E+018.1428571429E+00+
*       1.8500000000E+01               0
GRID*               9680               0-5.900000000E+017.1250000000E+00+
*       1.8500000000E+01               0
GRID*               9681               0-5.800000000E+016.1071428571E+00+
*       1.8500000000E+01               0
GRID*               9682               0-5.900000000E+015.0892857143E+00+
*       1.8500000000E+01               0
GRID*               9683               0-5.800000000E+014.0714285714E+00+
*       1.8500000000E+01               0
GRID*               9684               0-5.900000000E+013.0535714286E+00+
*       1.8500000000E+01               0
GRID*               9685               0-5.800000000E+012.0357142857E+00+
*       1.8500000000E+01               0
GRID*               9686               0-6.000000000E+012.6464285714E+01+
*       1.8500000000E+01               0
GRID*               9687               0-6.100000000E+012.5446428571E+01+
*       1.8500000000E+01               0
GRID*               9688               0-6.000000000E+012.4428571429E+01+
*       1.8500000000E+01               0
GRID*               9689               0-6.100000000E+012.3410714286E+01+
*       1.8500000000E+01               0
GRID*               9690               0-6.000000000E+012.2392857143E+01+
*       1.8500000000E+01               0
GRID*               9691               0-6.100000000E+012.1375000000E+01+
*       1.8500000000E+01               0
GRID*               9692               0-6.000000000E+012.0357142857E+01+
*       1.8500000000E+01               0
GRID*               9693               0-6.100000000E+011.9339285714E+01+
*       1.8500000000E+01               0
GRID*               9694               0-6.000000000E+011.8321428571E+01+
*       1.8500000000E+01               0
GRID*               9695               0-6.100000000E+011.7303571429E+01+
*       1.8500000000E+01               0
GRID*               9696               0-6.000000000E+011.6285714286E+01+
*       1.8500000000E+01               0
GRID*               9697               0-6.100000000E+011.5267857143E+01+
*       1.8500000000E+01               0
GRID*               9698               0-6.000000000E+011.4250000000E+01+
*       1.8500000000E+01               0
GRID*               9699               0-6.100000000E+011.3232142857E+01+
*       1.8500000000E+01               0
GRID*               9700               0-6.000000000E+011.2214285714E+01+
*       1.8500000000E+01               0
GRID*               9701               0-6.100000000E+011.1196428571E+01+
*       1.8500000000E+01               0
GRID*               9702               0-6.000000000E+011.0178571429E+01+
*       1.8500000000E+01               0
GRID*               9703               0-6.100000000E+019.1607142857E+00+
*       1.8500000000E+01               0
GRID*               9704               0-6.000000000E+018.1428571429E+00+
*       1.8500000000E+01               0
GRID*               9705               0-6.100000000E+017.1250000000E+00+
*       1.8500000000E+01               0
GRID*               9706               0-6.000000000E+016.1071428571E+00+
*       1.8500000000E+01               0
GRID*               9707               0-6.100000000E+015.0892857143E+00+
*       1.8500000000E+01               0
GRID*               9708               0-6.000000000E+014.0714285714E+00+
*       1.8500000000E+01               0
GRID*               9709               0-6.100000000E+013.0535714286E+00+
*       1.8500000000E+01               0
GRID*               9710               0-6.000000000E+012.0357142857E+00+
*       1.8500000000E+01               0
GRID*               9711               0-6.200000000E+012.6464285714E+01+
*       1.8500000000E+01               0
GRID*               9712               0-6.300000000E+012.5446428571E+01+
*       1.8500000000E+01               0
GRID*               9713               0-6.200000000E+012.4428571429E+01+
*       1.8500000000E+01               0
GRID*               9714               0-6.300000000E+012.3410714286E+01+
*       1.8500000000E+01               0
GRID*               9715               0-6.200000000E+012.2392857143E+01+
*       1.8500000000E+01               0
GRID*               9716               0-6.300000000E+012.1375000000E+01+
*       1.8500000000E+01               0
GRID*               9717               0-6.200000000E+012.0357142857E+01+
*       1.8500000000E+01               0
GRID*               9718               0-6.300000000E+011.9339285714E+01+
*       1.8500000000E+01               0
GRID*               9719               0-6.200000000E+011.8321428571E+01+
*       1.8500000000E+01               0
GRID*               9720               0-6.300000000E+011.7303571429E+01+
*       1.8500000000E+01               0
GRID*               9721               0-6.200000000E+011.6285714286E+01+
*       1.8500000000E+01               0
GRID*               9722               0-6.300000000E+011.5267857143E+01+
*       1.8500000000E+01               0
GRID*               9723               0-6.200000000E+011.4250000000E+01+
*       1.8500000000E+01               0
GRID*               9724               0-6.300000000E+011.3232142857E+01+
*       1.8500000000E+01               0
GRID*               9725               0-6.200000000E+011.2214285714E+01+
*       1.8500000000E+01               0
GRID*               9726               0-6.300000000E+011.1196428571E+01+
*       1.8500000000E+01               0
GRID*               9727               0-6.200000000E+011.0178571429E+01+
*       1.8500000000E+01               0
GRID*               9728               0-6.300000000E+019.1607142857E+00+
*       1.8500000000E+01               0
GRID*               9729               0-6.200000000E+018.1428571429E+00+
*       1.8500000000E+01               0
GRID*               9730               0-6.300000000E+017.1250000000E+00+
*       1.8500000000E+01               0
GRID*               9731               0-6.200000000E+016.1071428571E+00+
*       1.8500000000E+01               0
GRID*               9732               0-6.300000000E+015.0892857143E+00+
*       1.8500000000E+01               0
GRID*               9733               0-6.200000000E+014.0714285714E+00+
*       1.8500000000E+01               0
GRID*               9734               0-6.300000000E+013.0535714286E+00+
*       1.8500000000E+01               0
GRID*               9735               0-6.200000000E+012.0357142857E+00+
*       1.8500000000E+01               0
GRID*               9736               0-6.400000000E+012.6464285714E+01+
*       1.8500000000E+01               0
GRID*               9737               0-6.500000000E+012.5446428571E+01+
*       1.8500000000E+01               0
GRID*               9738               0-6.400000000E+012.4428571429E+01+
*       1.8500000000E+01               0
GRID*               9739               0-6.500000000E+012.3410714286E+01+
*       1.8500000000E+01               0
GRID*               9740               0-6.400000000E+012.2392857143E+01+
*       1.8500000000E+01               0
GRID*               9741               0-6.500000000E+012.1375000000E+01+
*       1.8500000000E+01               0
GRID*               9742               0-6.400000000E+012.0357142857E+01+
*       1.8500000000E+01               0
GRID*               9743               0-6.500000000E+011.9339285714E+01+
*       1.8500000000E+01               0
GRID*               9744               0-6.400000000E+011.8321428571E+01+
*       1.8500000000E+01               0
GRID*               9745               0-6.500000000E+011.7303571429E+01+
*       1.8500000000E+01               0
GRID*               9746               0-6.400000000E+011.6285714286E+01+
*       1.8500000000E+01               0
GRID*               9747               0-6.500000000E+011.5267857143E+01+
*       1.8500000000E+01               0
GRID*               9748               0-6.400000000E+011.4250000000E+01+
*       1.8500000000E+01               0
GRID*               9749               0-6.500000000E+011.3232142857E+01+
*       1.8500000000E+01               0
GRID*               9750               0-6.400000000E+011.2214285714E+01+
*       1.8500000000E+01               0
GRID*               9751               0-6.500000000E+011.1196428571E+01+
*       1.8500000000E+01               0
GRID*               9752               0-6.400000000E+011.0178571429E+01+
*       1.8500000000E+01               0
GRID*               9753               0-6.500000000E+019.1607142857E+00+
*       1.8500000000E+01               0
GRID*               9754               0-6.400000000E+018.1428571429E+00+
*       1.8500000000E+01               0
GRID*               9755               0-6.500000000E+017.1250000000E+00+
*       1.8500000000E+01               0
GRID*               9756               0-6.400000000E+016.1071428571E+00+
*       1.8500000000E+01               0
GRID*               9757               0-6.500000000E+015.0892857143E+00+
*       1.8500000000E+01               0
GRID*               9758               0-6.400000000E+014.0714285714E+00+
*       1.8500000000E+01               0
GRID*               9759               0-6.500000000E+013.0535714286E+00+
*       1.8500000000E+01               0
GRID*               9760               0-6.400000000E+012.0357142857E+00+
*       1.8500000000E+01               0
GRID*               9761               0-6.600000000E+012.6464285714E+01+
*       1.8500000000E+01               0
GRID*               9762               0-6.700000000E+012.5446428571E+01+
*       1.8500000000E+01               0
GRID*               9763               0-6.600000000E+012.4428571429E+01+
*       1.8500000000E+01               0
GRID*               9764               0-6.700000000E+012.3410714286E+01+
*       1.8500000000E+01               0
GRID*               9765               0-6.600000000E+012.2392857143E+01+
*       1.8500000000E+01               0
GRID*               9766               0-6.700000000E+012.1375000000E+01+
*       1.8500000000E+01               0
GRID*               9767               0-6.600000000E+012.0357142857E+01+
*       1.8500000000E+01               0
GRID*               9768               0-6.700000000E+011.9339285714E+01+
*       1.8500000000E+01               0
GRID*               9769               0-6.600000000E+011.8321428571E+01+
*       1.8500000000E+01               0
GRID*               9770               0-6.700000000E+011.7303571429E+01+
*       1.8500000000E+01               0
GRID*               9771               0-6.600000000E+011.6285714286E+01+
*       1.8500000000E+01               0
GRID*               9772               0-6.700000000E+011.5267857143E+01+
*       1.8500000000E+01               0
GRID*               9773               0-6.600000000E+011.4250000000E+01+
*       1.8500000000E+01               0
GRID*               9774               0-6.700000000E+011.3232142857E+01+
*       1.8500000000E+01               0
GRID*               9775               0-6.600000000E+011.2214285714E+01+
*       1.8500000000E+01               0
GRID*               9776               0-6.700000000E+011.1196428571E+01+
*       1.8500000000E+01               0
GRID*               9777               0-6.600000000E+011.0178571429E+01+
*       1.8500000000E+01               0
GRID*               9778               0-6.700000000E+019.1607142857E+00+
*       1.8500000000E+01               0
GRID*               9779               0-6.600000000E+018.1428571429E+00+
*       1.8500000000E+01               0
GRID*               9780               0-6.700000000E+017.1250000000E+00+
*       1.8500000000E+01               0
GRID*               9781               0-6.600000000E+016.1071428571E+00+
*       1.8500000000E+01               0
GRID*               9782               0-6.700000000E+015.0892857143E+00+
*       1.8500000000E+01               0
GRID*               9783               0-6.600000000E+014.0714285714E+00+
*       1.8500000000E+01               0
GRID*               9784               0-6.700000000E+013.0535714286E+00+
*       1.8500000000E+01               0
GRID*               9785               0-6.600000000E+012.0357142857E+00+
*       1.8500000000E+01               0
GRID*               9786               0-6.800000000E+012.6464285714E+01+
*       1.8500000000E+01               0
GRID*               9787               0-6.900000000E+012.5446428571E+01+
*       1.8500000000E+01               0
GRID*               9788               0-6.800000000E+012.4428571429E+01+
*       1.8500000000E+01               0
GRID*               9789               0-6.900000000E+012.3410714286E+01+
*       1.8500000000E+01               0
GRID*               9790               0-6.800000000E+012.2392857143E+01+
*       1.8500000000E+01               0
GRID*               9791               0-6.900000000E+012.1375000000E+01+
*       1.8500000000E+01               0
GRID*               9792               0-6.800000000E+012.0357142857E+01+
*       1.8500000000E+01               0
GRID*               9793               0-6.900000000E+011.9339285714E+01+
*       1.8500000000E+01               0
GRID*               9794               0-6.800000000E+011.8321428571E+01+
*       1.8500000000E+01               0
GRID*               9795               0-6.900000000E+011.7303571429E+01+
*       1.8500000000E+01               0
GRID*               9796               0-6.800000000E+011.6285714286E+01+
*       1.8500000000E+01               0
GRID*               9797               0-6.900000000E+011.5267857143E+01+
*       1.8500000000E+01               0
GRID*               9798               0-6.800000000E+011.4250000000E+01+
*       1.8500000000E+01               0
GRID*               9799               0-6.900000000E+011.3232142857E+01+
*       1.8500000000E+01               0
GRID*               9800               0-6.800000000E+011.2214285714E+01+
*       1.8500000000E+01               0
GRID*               9801               0-6.900000000E+011.1196428571E+01+
*       1.8500000000E+01               0
GRID*               9802               0-6.800000000E+011.0178571429E+01+
*       1.8500000000E+01               0
GRID*               9803               0-6.900000000E+019.1607142857E+00+
*       1.8500000000E+01               0
GRID*               9804               0-6.800000000E+018.1428571429E+00+
*       1.8500000000E+01               0
GRID*               9805               0-6.900000000E+017.1250000000E+00+
*       1.8500000000E+01               0
GRID*               9806               0-6.800000000E+016.1071428571E+00+
*       1.8500000000E+01               0
GRID*               9807               0-6.900000000E+015.0892857143E+00+
*       1.8500000000E+01               0
GRID*               9808               0-6.800000000E+014.0714285714E+00+
*       1.8500000000E+01               0
GRID*               9809               0-6.900000000E+013.0535714286E+00+
*       1.8500000000E+01               0
GRID*               9810               0-6.800000000E+012.0357142857E+00+
*       1.8500000000E+01               0
GRID*               9811               0-7.000000000E+012.6464285714E+01+
*       1.8500000000E+01               0
GRID*               9812               0-7.100000000E+012.5446428571E+01+
*       1.8500000000E+01               0
GRID*               9813               0-7.000000000E+012.4428571429E+01+
*       1.8500000000E+01               0
GRID*               9814               0-7.100000000E+012.3410714286E+01+
*       1.8500000000E+01               0
GRID*               9815               0-7.000000000E+012.2392857143E+01+
*       1.8500000000E+01               0
GRID*               9816               0-7.100000000E+012.1375000000E+01+
*       1.8500000000E+01               0
GRID*               9817               0-7.000000000E+012.0357142857E+01+
*       1.8500000000E+01               0
GRID*               9818               0-7.100000000E+011.9339285714E+01+
*       1.8500000000E+01               0
GRID*               9819               0-7.000000000E+011.8321428571E+01+
*       1.8500000000E+01               0
GRID*               9820               0-7.100000000E+011.7303571429E+01+
*       1.8500000000E+01               0
GRID*               9821               0-7.000000000E+011.6285714286E+01+
*       1.8500000000E+01               0
GRID*               9822               0-7.100000000E+011.5267857143E+01+
*       1.8500000000E+01               0
GRID*               9823               0-7.000000000E+011.4250000000E+01+
*       1.8500000000E+01               0
GRID*               9824               0-7.100000000E+011.3232142857E+01+
*       1.8500000000E+01               0
GRID*               9825               0-7.000000000E+011.2214285714E+01+
*       1.8500000000E+01               0
GRID*               9826               0-7.100000000E+011.1196428571E+01+
*       1.8500000000E+01               0
GRID*               9827               0-7.000000000E+011.0178571429E+01+
*       1.8500000000E+01               0
GRID*               9828               0-7.100000000E+019.1607142857E+00+
*       1.8500000000E+01               0
GRID*               9829               0-7.000000000E+018.1428571429E+00+
*       1.8500000000E+01               0
GRID*               9830               0-7.100000000E+017.1250000000E+00+
*       1.8500000000E+01               0
GRID*               9831               0-7.000000000E+016.1071428571E+00+
*       1.8500000000E+01               0
GRID*               9832               0-7.100000000E+015.0892857143E+00+
*       1.8500000000E+01               0
GRID*               9833               0-7.000000000E+014.0714285714E+00+
*       1.8500000000E+01               0
GRID*               9834               0-7.100000000E+013.0535714286E+00+
*       1.8500000000E+01               0
GRID*               9835               0-7.000000000E+012.0357142857E+00+
*       1.8500000000E+01               0
GRID*               9836               0-7.200000000E+012.6464285714E+01+
*       1.8500000000E+01               0
GRID*               9837               0-7.300000000E+012.5446428571E+01+
*       1.8500000000E+01               0
GRID*               9838               0-7.200000000E+012.4428571429E+01+
*       1.8500000000E+01               0
GRID*               9839               0-7.300000000E+012.3410714286E+01+
*       1.8500000000E+01               0
GRID*               9840               0-7.200000000E+012.2392857143E+01+
*       1.8500000000E+01               0
GRID*               9841               0-7.300000000E+012.1375000000E+01+
*       1.8500000000E+01               0
GRID*               9842               0-7.200000000E+012.0357142857E+01+
*       1.8500000000E+01               0
GRID*               9843               0-7.300000000E+011.9339285714E+01+
*       1.8500000000E+01               0
GRID*               9844               0-7.200000000E+011.8321428571E+01+
*       1.8500000000E+01               0
GRID*               9845               0-7.300000000E+011.7303571429E+01+
*       1.8500000000E+01               0
GRID*               9846               0-7.200000000E+011.6285714286E+01+
*       1.8500000000E+01               0
GRID*               9847               0-7.300000000E+011.5267857143E+01+
*       1.8500000000E+01               0
GRID*               9848               0-7.200000000E+011.4250000000E+01+
*       1.8500000000E+01               0
GRID*               9849               0-7.300000000E+011.3232142857E+01+
*       1.8500000000E+01               0
GRID*               9850               0-7.200000000E+011.2214285714E+01+
*       1.8500000000E+01               0
GRID*               9851               0-7.300000000E+011.1196428571E+01+
*       1.8500000000E+01               0
GRID*               9852               0-7.200000000E+011.0178571429E+01+
*       1.8500000000E+01               0
GRID*               9853               0-7.300000000E+019.1607142857E+00+
*       1.8500000000E+01               0
GRID*               9854               0-7.200000000E+018.1428571429E+00+
*       1.8500000000E+01               0
GRID*               9855               0-7.300000000E+017.1250000000E+00+
*       1.8500000000E+01               0
GRID*               9856               0-7.200000000E+016.1071428571E+00+
*       1.8500000000E+01               0
GRID*               9857               0-7.300000000E+015.0892857143E+00+
*       1.8500000000E+01               0
GRID*               9858               0-7.200000000E+014.0714285714E+00+
*       1.8500000000E+01               0
GRID*               9859               0-7.300000000E+013.0535714286E+00+
*       1.8500000000E+01               0
GRID*               9860               0-7.200000000E+012.0357142857E+00+
*       1.8500000000E+01               0
GRID*               9861               07.3000000000E+012.7482142857E+01+
*       1.8500000000E+01               0
GRID*               9862               07.4000000000E+012.6464285714E+01+
*       1.8500000000E+01               0
GRID*               9863               07.1000000000E+012.7482142857E+01+
*       1.8500000000E+01               0
GRID*               9864               06.9000000000E+012.7482142857E+01+
*       1.8500000000E+01               0
GRID*               9865               06.7000000000E+012.7482142857E+01+
*       1.8500000000E+01               0
GRID*               9866               06.5000000000E+012.7482142857E+01+
*       1.8500000000E+01               0
GRID*               9867               06.3000000000E+012.7482142857E+01+
*       1.8500000000E+01               0
GRID*               9868               06.1000000000E+012.7482142857E+01+
*       1.8500000000E+01               0
GRID*               9869               05.9000000000E+012.7482142857E+01+
*       1.8500000000E+01               0
GRID*               9870               05.7000000000E+012.7482142857E+01+
*       1.8500000000E+01               0
GRID*               9871               05.5000000000E+012.7482142857E+01+
*       1.8500000000E+01               0
GRID*               9872               05.3000000000E+012.7482142857E+01+
*       1.8500000000E+01               0
GRID*               9873               05.1000000000E+012.7482142857E+01+
*       1.8500000000E+01               0
GRID*               9874               04.9000000000E+012.7482142857E+01+
*       1.8500000000E+01               0
GRID*               9875               04.7000000000E+012.7482142857E+01+
*       1.8500000000E+01               0
GRID*               9876               04.5000000000E+012.7482142857E+01+
*       1.8500000000E+01               0
GRID*               9877               04.3000000000E+012.7482142857E+01+
*       1.8500000000E+01               0
GRID*               9878               04.1000000000E+012.7482142857E+01+
*       1.8500000000E+01               0
GRID*               9879               03.9000000000E+012.7482142857E+01+
*       1.8500000000E+01               0
GRID*               9880               03.7000000000E+012.7482142857E+01+
*       1.8500000000E+01               0
GRID*               9881               03.5000000000E+012.7482142857E+01+
*       1.8500000000E+01               0
GRID*               9882               03.3000000000E+012.7482142857E+01+
*       1.8500000000E+01               0
GRID*               9883               03.1000000000E+012.7482142857E+01+
*       1.8500000000E+01               0
GRID*               9884               02.9000000000E+012.7482142857E+01+
*       1.8500000000E+01               0
GRID*               9885               02.7000000000E+012.7482142857E+01+
*       1.8500000000E+01               0
GRID*               9886               02.5000000000E+012.7482142857E+01+
*       1.8500000000E+01               0
GRID*               9887               02.3000000000E+012.7482142857E+01+
*       1.8500000000E+01               0
GRID*               9888               02.1000000000E+012.7482142857E+01+
*       1.8500000000E+01               0
GRID*               9889               01.9000000000E+012.7482142857E+01+
*       1.8500000000E+01               0
GRID*               9890               01.7000000000E+012.7482142857E+01+
*       1.8500000000E+01               0
GRID*               9891               01.5000000000E+012.7482142857E+01+
*       1.8500000000E+01               0
GRID*               9892               01.3000000000E+012.7482142857E+01+
*       1.8500000000E+01               0
GRID*               9893               01.1000000000E+012.7482142857E+01+
*       1.8500000000E+01               0
GRID*               9894               09.0000000000E+002.7482142857E+01+
*       1.8500000000E+01               0
GRID*               9895               07.0000000000E+002.7482142857E+01+
*       1.8500000000E+01               0
GRID*               9896               05.0000000000E+002.7482142857E+01+
*       1.8500000000E+01               0
GRID*               9897               03.0000000000E+002.7482142857E+01+
*       1.8500000000E+01               0
GRID*               9898               01.0000000000E+002.7482142857E+01+
*       1.8500000000E+01               0
GRID*               9899               0-1.000000000E+002.7482142857E+01+
*       1.8500000000E+01               0
GRID*               9900               0-3.000000000E+002.7482142857E+01+
*       1.8500000000E+01               0
GRID*               9901               0-5.000000000E+002.7482142857E+01+
*       1.8500000000E+01               0
GRID*               9902               0-7.000000000E+002.7482142857E+01+
*       1.8500000000E+01               0
GRID*               9903               0-9.000000000E+002.7482142857E+01+
*       1.8500000000E+01               0
GRID*               9904               0-1.100000000E+012.7482142857E+01+
*       1.8500000000E+01               0
GRID*               9905               0-1.300000000E+012.7482142857E+01+
*       1.8500000000E+01               0
GRID*               9906               0-1.500000000E+012.7482142857E+01+
*       1.8500000000E+01               0
GRID*               9907               0-1.700000000E+012.7482142857E+01+
*       1.8500000000E+01               0
GRID*               9908               0-1.900000000E+012.7482142857E+01+
*       1.8500000000E+01               0
GRID*               9909               0-2.100000000E+012.7482142857E+01+
*       1.8500000000E+01               0
GRID*               9910               0-2.300000000E+012.7482142857E+01+
*       1.8500000000E+01               0
GRID*               9911               0-2.500000000E+012.7482142857E+01+
*       1.8500000000E+01               0
GRID*               9912               0-2.700000000E+012.7482142857E+01+
*       1.8500000000E+01               0
GRID*               9913               0-2.900000000E+012.7482142857E+01+
*       1.8500000000E+01               0
GRID*               9914               0-3.100000000E+012.7482142857E+01+
*       1.8500000000E+01               0
GRID*               9915               0-3.300000000E+012.7482142857E+01+
*       1.8500000000E+01               0
GRID*               9916               0-3.500000000E+012.7482142857E+01+
*       1.8500000000E+01               0
GRID*               9917               0-3.700000000E+012.7482142857E+01+
*       1.8500000000E+01               0
GRID*               9918               0-3.900000000E+012.7482142857E+01+
*       1.8500000000E+01               0
GRID*               9919               0-4.100000000E+012.7482142857E+01+
*       1.8500000000E+01               0
GRID*               9920               0-4.300000000E+012.7482142857E+01+
*       1.8500000000E+01               0
GRID*               9921               0-4.500000000E+012.7482142857E+01+
*       1.8500000000E+01               0
GRID*               9922               0-4.700000000E+012.7482142857E+01+
*       1.8500000000E+01               0
GRID*               9923               0-4.900000000E+012.7482142857E+01+
*       1.8500000000E+01               0
GRID*               9924               0-5.100000000E+012.7482142857E+01+
*       1.8500000000E+01               0
GRID*               9925               0-5.300000000E+012.7482142857E+01+
*       1.8500000000E+01               0
GRID*               9926               0-5.500000000E+012.7482142857E+01+
*       1.8500000000E+01               0
GRID*               9927               0-5.700000000E+012.7482142857E+01+
*       1.8500000000E+01               0
GRID*               9928               0-5.900000000E+012.7482142857E+01+
*       1.8500000000E+01               0
GRID*               9929               0-6.100000000E+012.7482142857E+01+
*       1.8500000000E+01               0
GRID*               9930               0-6.300000000E+012.7482142857E+01+
*       1.8500000000E+01               0
GRID*               9931               0-6.500000000E+012.7482142857E+01+
*       1.8500000000E+01               0
GRID*               9932               0-6.700000000E+012.7482142857E+01+
*       1.8500000000E+01               0
GRID*               9933               0-6.900000000E+012.7482142857E+01+
*       1.8500000000E+01               0
GRID*               9934               0-7.100000000E+012.7482142857E+01+
*       1.8500000000E+01               0
GRID*               9935               0-7.300000000E+012.7482142857E+01+
*       1.8500000000E+01               0
GRID*               9936               0-7.400000000E+012.6464285714E+01+
*       1.8500000000E+01               0
GRID*               9937               0-7.400000000E+012.4428571429E+01+
*       1.8500000000E+01               0
GRID*               9938               0-7.400000000E+012.2392857143E+01+
*       1.8500000000E+01               0
GRID*               9939               0-7.400000000E+012.0357142857E+01+
*       1.8500000000E+01               0
GRID*               9940               0-7.400000000E+011.8321428571E+01+
*       1.8500000000E+01               0
GRID*               9941               0-7.400000000E+011.6285714286E+01+
*       1.8500000000E+01               0
GRID*               9942               0-7.400000000E+011.4250000000E+01+
*       1.8500000000E+01               0
GRID*               9943               0-7.400000000E+011.2214285714E+01+
*       1.8500000000E+01               0
GRID*               9944               0-7.400000000E+011.0178571429E+01+
*       1.8500000000E+01               0
GRID*               9945               0-7.400000000E+018.1428571429E+00+
*       1.8500000000E+01               0
GRID*               9946               0-7.400000000E+016.1071428571E+00+
*       1.8500000000E+01               0
GRID*               9947               0-7.400000000E+014.0714285714E+00+
*       1.8500000000E+01               0
GRID*               9948               0-7.400000000E+012.0357142857E+00+
*       1.8500000000E+01               0
GRID*               9949               0-7.300000000E+011.0178571429E+00+
*       1.8500000000E+01               0
GRID*               9950               0-7.100000000E+011.0178571429E+00+
*       1.8500000000E+01               0
GRID*               9951               0-6.900000000E+011.0178571429E+00+
*       1.8500000000E+01               0
GRID*               9952               0-6.700000000E+011.0178571429E+00+
*       1.8500000000E+01               0
GRID*               9953               0-6.500000000E+011.0178571429E+00+
*       1.8500000000E+01               0
GRID*               9954               0-6.300000000E+011.0178571429E+00+
*       1.8500000000E+01               0
GRID*               9955               0-6.100000000E+011.0178571429E+00+
*       1.8500000000E+01               0
GRID*               9956               0-5.900000000E+011.0178571429E+00+
*       1.8500000000E+01               0
GRID*               9957               0-5.700000000E+011.0178571429E+00+
*       1.8500000000E+01               0
GRID*               9958               0-5.500000000E+011.0178571429E+00+
*       1.8500000000E+01               0
GRID*               9959               0-5.300000000E+011.0178571429E+00+
*       1.8500000000E+01               0
GRID*               9960               0-5.100000000E+011.0178571429E+00+
*       1.8500000000E+01               0
GRID*               9961               0-4.900000000E+011.0178571429E+00+
*       1.8500000000E+01               0
GRID*               9962               0-4.700000000E+011.0178571429E+00+
*       1.8500000000E+01               0
GRID*               9963               0-4.500000000E+011.0178571429E+00+
*       1.8500000000E+01               0
GRID*               9964               0-4.300000000E+011.0178571429E+00+
*       1.8500000000E+01               0
GRID*               9965               0-4.100000000E+011.0178571429E+00+
*       1.8500000000E+01               0
GRID*               9966               0-3.900000000E+011.0178571429E+00+
*       1.8500000000E+01               0
GRID*               9967               0-3.700000000E+011.0178571429E+00+
*       1.8500000000E+01               0
GRID*               9968               0-3.500000000E+011.0178571429E+00+
*       1.8500000000E+01               0
GRID*               9969               0-3.300000000E+011.0178571429E+00+
*       1.8500000000E+01               0
GRID*               9970               0-3.100000000E+011.0178571429E+00+
*       1.8500000000E+01               0
GRID*               9971               0-2.900000000E+011.0178571429E+00+
*       1.8500000000E+01               0
GRID*               9972               0-2.700000000E+011.0178571429E+00+
*       1.8500000000E+01               0
GRID*               9973               0-2.500000000E+011.0178571429E+00+
*       1.8500000000E+01               0
GRID*               9974               0-2.300000000E+011.0178571429E+00+
*       1.8500000000E+01               0
GRID*               9975               0-2.100000000E+011.0178571429E+00+
*       1.8500000000E+01               0
GRID*               9976               0-1.900000000E+011.0178571429E+00+
*       1.8500000000E+01               0
GRID*               9977               0-1.700000000E+011.0178571429E+00+
*       1.8500000000E+01               0
GRID*               9978               0-1.500000000E+011.0178571429E+00+
*       1.8500000000E+01               0
GRID*               9979               0-1.300000000E+011.0178571429E+00+
*       1.8500000000E+01               0
GRID*               9980               0-1.100000000E+011.0178571429E+00+
*       1.8500000000E+01               0
GRID*               9981               0-9.000000000E+001.0178571429E+00+
*       1.8500000000E+01               0
GRID*               9982               0-7.000000000E+001.0178571429E+00+
*       1.8500000000E+01               0
GRID*               9983               0-5.000000000E+001.0178571429E+00+
*       1.8500000000E+01               0
GRID*               9984               0-3.000000000E+001.0178571429E+00+
*       1.8500000000E+01               0
GRID*               9985               0-1.000000000E+001.0178571429E+00+
*       1.8500000000E+01               0
GRID*               9986               01.0000000000E+001.0178571429E+00+
*       1.8500000000E+01               0
GRID*               9987               03.0000000000E+001.0178571429E+00+
*       1.8500000000E+01               0
GRID*               9988               05.0000000000E+001.0178571429E+00+
*       1.8500000000E+01               0
GRID*               9989               07.0000000000E+001.0178571429E+00+
*       1.8500000000E+01               0
GRID*               9990               09.0000000000E+001.0178571429E+00+
*       1.8500000000E+01               0
GRID*               9991               01.1000000000E+011.0178571429E+00+
*       1.8500000000E+01               0
GRID*               9992               01.3000000000E+011.0178571429E+00+
*       1.8500000000E+01               0
GRID*               9993               01.5000000000E+011.0178571429E+00+
*       1.8500000000E+01               0
GRID*               9994               01.7000000000E+011.0178571429E+00+
*       1.8500000000E+01               0
GRID*               9995               01.9000000000E+011.0178571429E+00+
*       1.8500000000E+01               0
GRID*               9996               02.1000000000E+011.0178571429E+00+
*       1.8500000000E+01               0
GRID*               9997               02.3000000000E+011.0178571429E+00+
*       1.8500000000E+01               0
GRID*               9998               02.5000000000E+011.0178571429E+00+
*       1.8500000000E+01               0
GRID*               9999               02.7000000000E+011.0178571429E+00+
*       1.8500000000E+01               0
GRID*              10000               02.9000000000E+011.0178571429E+00+
*       1.8500000000E+01               0
GRID*              10001               03.1000000000E+011.0178571429E+00+
*       1.8500000000E+01               0
GRID*              10002               03.3000000000E+011.0178571429E+00+
*       1.8500000000E+01               0
GRID*              10003               03.5000000000E+011.0178571429E+00+
*       1.8500000000E+01               0
GRID*              10004               03.7000000000E+011.0178571429E+00+
*       1.8500000000E+01               0
GRID*              10005               03.9000000000E+011.0178571429E+00+
*       1.8500000000E+01               0
GRID*              10006               04.1000000000E+011.0178571429E+00+
*       1.8500000000E+01               0
GRID*              10007               04.3000000000E+011.0178571429E+00+
*       1.8500000000E+01               0
GRID*              10008               04.5000000000E+011.0178571429E+00+
*       1.8500000000E+01               0
GRID*              10009               04.7000000000E+011.0178571429E+00+
*       1.8500000000E+01               0
GRID*              10010               04.9000000000E+011.0178571429E+00+
*       1.8500000000E+01               0
GRID*              10011               05.1000000000E+011.0178571429E+00+
*       1.8500000000E+01               0
GRID*              10012               05.3000000000E+011.0178571429E+00+
*       1.8500000000E+01               0
GRID*              10013               05.5000000000E+011.0178571429E+00+
*       1.8500000000E+01               0
GRID*              10014               05.7000000000E+011.0178571429E+00+
*       1.8500000000E+01               0
GRID*              10015               05.9000000000E+011.0178571429E+00+
*       1.8500000000E+01               0
GRID*              10016               06.1000000000E+011.0178571429E+00+
*       1.8500000000E+01               0
GRID*              10017               06.3000000000E+011.0178571429E+00+
*       1.8500000000E+01               0
GRID*              10018               06.5000000000E+011.0178571429E+00+
*       1.8500000000E+01               0
GRID*              10019               06.7000000000E+011.0178571429E+00+
*       1.8500000000E+01               0
GRID*              10020               06.9000000000E+011.0178571429E+00+
*       1.8500000000E+01               0
GRID*              10021               07.1000000000E+011.0178571429E+00+
*       1.8500000000E+01               0
GRID*              10022               07.3000000000E+011.0178571429E+00+
*       1.8500000000E+01               0
GRID*              10023               07.4000000000E+012.0357142857E+00+
*       1.8500000000E+01               0
GRID*              10024               07.4000000000E+014.0714285714E+00+
*       1.8500000000E+01               0
GRID*              10025               07.4000000000E+016.1071428571E+00+
*       1.8500000000E+01               0
GRID*              10026               07.4000000000E+018.1428571429E+00+
*       1.8500000000E+01               0
GRID*              10027               07.4000000000E+011.0178571429E+01+
*       1.8500000000E+01               0
GRID*              10028               07.4000000000E+011.2214285714E+01+
*       1.8500000000E+01               0
GRID*              10029               07.4000000000E+011.4250000000E+01+
*       1.8500000000E+01               0
GRID*              10030               07.4000000000E+011.6285714286E+01+
*       1.8500000000E+01               0
GRID*              10031               07.4000000000E+011.8321428571E+01+
*       1.8500000000E+01               0
GRID*              10032               07.4000000000E+012.0357142857E+01+
*       1.8500000000E+01               0
GRID*              10033               07.4000000000E+012.2392857143E+01+
*       1.8500000000E+01               0
GRID*              10034               07.4000000000E+012.4428571429E+01+
*       1.8500000000E+01               0
GRID*              10035               0-7.500000000E+010.0000000000E+00+
*       1.6552631579E+01               0
GRID*              10036               0-7.500000000E+010.0000000000E+00+
*       1.4605263158E+01               0
GRID*              10037               0-7.500000000E+010.0000000000E+00+
*       1.2657894737E+01               0
GRID*              10038               0-7.500000000E+010.0000000000E+00+
*       1.0710526316E+01               0
GRID*              10039               0-7.500000000E+010.0000000000E+00+
*       8.7631578947E+00               0
GRID*              10040               0-7.500000000E+010.0000000000E+00+
*       6.8157894737E+00               0
GRID*              10041               0-7.500000000E+010.0000000000E+00+
*       4.8684210526E+00               0
GRID*              10042               0-7.500000000E+010.0000000000E+00+
*       2.9210526316E+00               0
GRID*              10043               0-7.500000000E+010.0000000000E+00+
*       9.7368421053E-01               0
GRID*              10044               0-7.500000000E+010.0000000000E+00+
*       -9.736842105E-01               0
GRID*              10045               0-7.500000000E+010.0000000000E+00+
*       -2.921052632E+00               0
GRID*              10046               0-7.500000000E+010.0000000000E+00+
*       -4.868421053E+00               0
GRID*              10047               0-7.500000000E+010.0000000000E+00+
*       -6.815789474E+00               0
GRID*              10048               0-7.500000000E+010.0000000000E+00+
*       -8.763157895E+00               0
GRID*              10049               0-7.500000000E+010.0000000000E+00+
*       -1.071052632E+01               0
GRID*              10050               0-7.500000000E+010.0000000000E+00+
*       -1.265789474E+01               0
GRID*              10051               0-7.500000000E+010.0000000000E+00+
*       -1.460526316E+01               0
GRID*              10052               0-7.500000000E+010.0000000000E+00+
*       -1.655263158E+01               0
GRID*              10053               0-7.500000000E+010.0000000000E+00+
*       1.7526315789E+01               0
GRID*              10054               0-7.500000000E+010.0000000000E+00+
*       1.5578947368E+01               0
GRID*              10055               0-7.500000000E+010.0000000000E+00+
*       1.3631578947E+01               0
GRID*              10056               0-7.500000000E+010.0000000000E+00+
*       1.1684210526E+01               0
GRID*              10057               0-7.500000000E+010.0000000000E+00+
*       9.7368421053E+00               0
GRID*              10058               0-7.500000000E+010.0000000000E+00+
*       7.7894736842E+00               0
GRID*              10059               0-7.500000000E+010.0000000000E+00+
*       5.8421052632E+00               0
GRID*              10060               0-7.500000000E+010.0000000000E+00+
*       3.8947368421E+00               0
GRID*              10061               0-7.500000000E+010.0000000000E+00+
*       1.9473684211E+00               0
GRID*              10062               0-7.500000000E+010.0000000000E+00+
*       0.0000000000E+00               0
GRID*              10063               0-7.500000000E+010.0000000000E+00+
*       -1.947368421E+00               0
GRID*              10064               0-7.500000000E+010.0000000000E+00+
*       -3.894736842E+00               0
GRID*              10065               0-7.500000000E+010.0000000000E+00+
*       -5.842105263E+00               0
GRID*              10066               0-7.500000000E+010.0000000000E+00+
*       -7.789473684E+00               0
GRID*              10067               0-7.500000000E+010.0000000000E+00+
*       -9.736842105E+00               0
GRID*              10068               0-7.500000000E+010.0000000000E+00+
*       -1.168421053E+01               0
GRID*              10069               0-7.500000000E+010.0000000000E+00+
*       -1.363157895E+01               0
GRID*              10070               0-7.500000000E+010.0000000000E+00+
*       -1.557894737E+01               0
GRID*              10071               0-7.500000000E+010.0000000000E+00+
*       -1.752631579E+01               0
GRID*              10072               0-7.500000000E+012.0357142857E+00+
*       -1.850000000E+01               0
GRID*              10073               0-7.500000000E+014.0714285714E+00+
*       -1.850000000E+01               0
GRID*              10074               0-7.500000000E+016.1071428571E+00+
*       -1.850000000E+01               0
GRID*              10075               0-7.500000000E+018.1428571429E+00+
*       -1.850000000E+01               0
GRID*              10076               0-7.500000000E+011.0178571429E+01+
*       -1.850000000E+01               0
GRID*              10077               0-7.500000000E+011.2214285714E+01+
*       -1.850000000E+01               0
GRID*              10078               0-7.500000000E+011.4250000000E+01+
*       -1.850000000E+01               0
GRID*              10079               0-7.500000000E+011.6285714286E+01+
*       -1.850000000E+01               0
GRID*              10080               0-7.500000000E+011.8321428571E+01+
*       -1.850000000E+01               0
GRID*              10081               0-7.500000000E+012.0357142857E+01+
*       -1.850000000E+01               0
GRID*              10082               0-7.500000000E+012.2392857143E+01+
*       -1.850000000E+01               0
GRID*              10083               0-7.500000000E+012.4428571429E+01+
*       -1.850000000E+01               0
GRID*              10084               0-7.500000000E+012.6464285714E+01+
*       -1.850000000E+01               0
GRID*              10085               0-7.500000000E+012.7482142857E+01+
*       -1.850000000E+01               0
GRID*              10086               0-7.500000000E+011.0178571429E+00+
*       -1.850000000E+01               0
GRID*              10087               0-7.500000000E+013.0535714286E+00+
*       -1.850000000E+01               0
GRID*              10088               0-7.500000000E+015.0892857143E+00+
*       -1.850000000E+01               0
GRID*              10089               0-7.500000000E+017.1250000000E+00+
*       -1.850000000E+01               0
GRID*              10090               0-7.500000000E+019.1607142857E+00+
*       -1.850000000E+01               0
GRID*              10091               0-7.500000000E+011.1196428571E+01+
*       -1.850000000E+01               0
GRID*              10092               0-7.500000000E+011.3232142857E+01+
*       -1.850000000E+01               0
GRID*              10093               0-7.500000000E+011.5267857143E+01+
*       -1.850000000E+01               0
GRID*              10094               0-7.500000000E+011.7303571429E+01+
*       -1.850000000E+01               0
GRID*              10095               0-7.500000000E+011.9339285714E+01+
*       -1.850000000E+01               0
GRID*              10096               0-7.500000000E+012.1375000000E+01+
*       -1.850000000E+01               0
GRID*              10097               0-7.500000000E+012.3410714286E+01+
*       -1.850000000E+01               0
GRID*              10098               0-7.500000000E+012.5446428571E+01+
*       -1.850000000E+01               0
GRID*              10099               0-7.500000000E+012.6464285714E+01+
*       1.8500000000E+01               0
GRID*              10100               0-7.500000000E+012.4428571429E+01+
*       1.8500000000E+01               0
GRID*              10101               0-7.500000000E+012.2392857143E+01+
*       1.8500000000E+01               0
GRID*              10102               0-7.500000000E+012.0357142857E+01+
*       1.8500000000E+01               0
GRID*              10103               0-7.500000000E+011.8321428571E+01+
*       1.8500000000E+01               0
GRID*              10104               0-7.500000000E+011.6285714286E+01+
*       1.8500000000E+01               0
GRID*              10105               0-7.500000000E+011.4250000000E+01+
*       1.8500000000E+01               0
GRID*              10106               0-7.500000000E+011.2214285714E+01+
*       1.8500000000E+01               0
GRID*              10107               0-7.500000000E+011.0178571429E+01+
*       1.8500000000E+01               0
GRID*              10108               0-7.500000000E+018.1428571429E+00+
*       1.8500000000E+01               0
GRID*              10109               0-7.500000000E+016.1071428571E+00+
*       1.8500000000E+01               0
GRID*              10110               0-7.500000000E+014.0714285714E+00+
*       1.8500000000E+01               0
GRID*              10111               0-7.500000000E+012.0357142857E+00+
*       1.8500000000E+01               0
GRID*              10112               0-7.500000000E+012.7482142857E+01+
*       1.8500000000E+01               0
GRID*              10113               0-7.500000000E+012.5446428571E+01+
*       1.8500000000E+01               0
GRID*              10114               0-7.500000000E+012.3410714286E+01+
*       1.8500000000E+01               0
GRID*              10115               0-7.500000000E+012.1375000000E+01+
*       1.8500000000E+01               0
GRID*              10116               0-7.500000000E+011.9339285714E+01+
*       1.8500000000E+01               0
GRID*              10117               0-7.500000000E+011.7303571429E+01+
*       1.8500000000E+01               0
GRID*              10118               0-7.500000000E+011.5267857143E+01+
*       1.8500000000E+01               0
GRID*              10119               0-7.500000000E+011.3232142857E+01+
*       1.8500000000E+01               0
GRID*              10120               0-7.500000000E+011.1196428571E+01+
*       1.8500000000E+01               0
GRID*              10121               0-7.500000000E+019.1607142857E+00+
*       1.8500000000E+01               0
GRID*              10122               0-7.500000000E+017.1250000000E+00+
*       1.8500000000E+01               0
GRID*              10123               0-7.500000000E+015.0892857143E+00+
*       1.8500000000E+01               0
GRID*              10124               0-7.500000000E+013.0535714286E+00+
*       1.8500000000E+01               0
GRID*              10125               0-7.500000000E+011.0178571429E+00+
*       1.8500000000E+01               0
GRID*              10126               0-7.300000000E+010.0000000000E+00+
*       -1.850000000E+01               0
GRID*              10127               0-7.100000000E+010.0000000000E+00+
*       -1.850000000E+01               0
GRID*              10128               0-6.900000000E+010.0000000000E+00+
*       -1.850000000E+01               0
GRID*              10129               0-6.700000000E+010.0000000000E+00+
*       -1.850000000E+01               0
GRID*              10130               0-6.500000000E+010.0000000000E+00+
*       -1.850000000E+01               0
GRID*              10131               0-6.300000000E+010.0000000000E+00+
*       -1.850000000E+01               0
GRID*              10132               0-6.100000000E+010.0000000000E+00+
*       -1.850000000E+01               0
GRID*              10133               0-5.900000000E+010.0000000000E+00+
*       -1.850000000E+01               0
GRID*              10134               0-5.700000000E+010.0000000000E+00+
*       -1.850000000E+01               0
GRID*              10135               0-5.500000000E+010.0000000000E+00+
*       -1.850000000E+01               0
GRID*              10136               0-5.300000000E+010.0000000000E+00+
*       -1.850000000E+01               0
GRID*              10137               0-5.100000000E+010.0000000000E+00+
*       -1.850000000E+01               0
GRID*              10138               0-4.900000000E+010.0000000000E+00+
*       -1.850000000E+01               0
GRID*              10139               0-4.700000000E+010.0000000000E+00+
*       -1.850000000E+01               0
GRID*              10140               0-4.500000000E+010.0000000000E+00+
*       -1.850000000E+01               0
GRID*              10141               0-4.300000000E+010.0000000000E+00+
*       -1.850000000E+01               0
GRID*              10142               0-4.100000000E+010.0000000000E+00+
*       -1.850000000E+01               0
GRID*              10143               0-3.900000000E+010.0000000000E+00+
*       -1.850000000E+01               0
GRID*              10144               0-3.700000000E+010.0000000000E+00+
*       -1.850000000E+01               0
GRID*              10145               0-3.500000000E+010.0000000000E+00+
*       -1.850000000E+01               0
GRID*              10146               0-3.300000000E+010.0000000000E+00+
*       -1.850000000E+01               0
GRID*              10147               0-3.100000000E+010.0000000000E+00+
*       -1.850000000E+01               0
GRID*              10148               0-2.900000000E+010.0000000000E+00+
*       -1.850000000E+01               0
GRID*              10149               0-2.700000000E+010.0000000000E+00+
*       -1.850000000E+01               0
GRID*              10150               0-2.500000000E+010.0000000000E+00+
*       -1.850000000E+01               0
GRID*              10151               0-2.300000000E+010.0000000000E+00+
*       -1.850000000E+01               0
GRID*              10152               0-2.100000000E+010.0000000000E+00+
*       -1.850000000E+01               0
GRID*              10153               0-1.900000000E+010.0000000000E+00+
*       -1.850000000E+01               0
GRID*              10154               0-1.700000000E+010.0000000000E+00+
*       -1.850000000E+01               0
GRID*              10155               0-1.500000000E+010.0000000000E+00+
*       -1.850000000E+01               0
GRID*              10156               0-1.300000000E+010.0000000000E+00+
*       -1.850000000E+01               0
GRID*              10157               0-1.100000000E+010.0000000000E+00+
*       -1.850000000E+01               0
GRID*              10158               0-9.000000000E+000.0000000000E+00+
*       -1.850000000E+01               0
GRID*              10159               0-7.000000000E+000.0000000000E+00+
*       -1.850000000E+01               0
GRID*              10160               0-5.000000000E+000.0000000000E+00+
*       -1.850000000E+01               0
GRID*              10161               0-3.000000000E+000.0000000000E+00+
*       -1.850000000E+01               0
GRID*              10162               0-1.000000000E+000.0000000000E+00+
*       -1.850000000E+01               0
GRID*              10163               01.0000000000E+000.0000000000E+00+
*       -1.850000000E+01               0
GRID*              10164               03.0000000000E+000.0000000000E+00+
*       -1.850000000E+01               0
GRID*              10165               05.0000000000E+000.0000000000E+00+
*       -1.850000000E+01               0
GRID*              10166               07.0000000000E+000.0000000000E+00+
*       -1.850000000E+01               0
GRID*              10167               09.0000000000E+000.0000000000E+00+
*       -1.850000000E+01               0
GRID*              10168               01.1000000000E+010.0000000000E+00+
*       -1.850000000E+01               0
GRID*              10169               01.3000000000E+010.0000000000E+00+
*       -1.850000000E+01               0
GRID*              10170               01.5000000000E+010.0000000000E+00+
*       -1.850000000E+01               0
GRID*              10171               01.7000000000E+010.0000000000E+00+
*       -1.850000000E+01               0
GRID*              10172               01.9000000000E+010.0000000000E+00+
*       -1.850000000E+01               0
GRID*              10173               02.1000000000E+010.0000000000E+00+
*       -1.850000000E+01               0
GRID*              10174               02.3000000000E+010.0000000000E+00+
*       -1.850000000E+01               0
GRID*              10175               02.5000000000E+010.0000000000E+00+
*       -1.850000000E+01               0
GRID*              10176               02.7000000000E+010.0000000000E+00+
*       -1.850000000E+01               0
GRID*              10177               02.9000000000E+010.0000000000E+00+
*       -1.850000000E+01               0
GRID*              10178               03.1000000000E+010.0000000000E+00+
*       -1.850000000E+01               0
GRID*              10179               03.3000000000E+010.0000000000E+00+
*       -1.850000000E+01               0
GRID*              10180               03.5000000000E+010.0000000000E+00+
*       -1.850000000E+01               0
GRID*              10181               03.7000000000E+010.0000000000E+00+
*       -1.850000000E+01               0
GRID*              10182               03.9000000000E+010.0000000000E+00+
*       -1.850000000E+01               0
GRID*              10183               04.1000000000E+010.0000000000E+00+
*       -1.850000000E+01               0
GRID*              10184               04.3000000000E+010.0000000000E+00+
*       -1.850000000E+01               0
GRID*              10185               04.5000000000E+010.0000000000E+00+
*       -1.850000000E+01               0
GRID*              10186               04.7000000000E+010.0000000000E+00+
*       -1.850000000E+01               0
GRID*              10187               04.9000000000E+010.0000000000E+00+
*       -1.850000000E+01               0
GRID*              10188               05.1000000000E+010.0000000000E+00+
*       -1.850000000E+01               0
GRID*              10189               05.3000000000E+010.0000000000E+00+
*       -1.850000000E+01               0
GRID*              10190               05.5000000000E+010.0000000000E+00+
*       -1.850000000E+01               0
GRID*              10191               05.7000000000E+010.0000000000E+00+
*       -1.850000000E+01               0
GRID*              10192               05.9000000000E+010.0000000000E+00+
*       -1.850000000E+01               0
GRID*              10193               06.1000000000E+010.0000000000E+00+
*       -1.850000000E+01               0
GRID*              10194               06.3000000000E+010.0000000000E+00+
*       -1.850000000E+01               0
GRID*              10195               06.5000000000E+010.0000000000E+00+
*       -1.850000000E+01               0
GRID*              10196               06.7000000000E+010.0000000000E+00+
*       -1.850000000E+01               0
GRID*              10197               06.9000000000E+010.0000000000E+00+
*       -1.850000000E+01               0
GRID*              10198               07.1000000000E+010.0000000000E+00+
*       -1.850000000E+01               0
GRID*              10199               07.3000000000E+010.0000000000E+00+
*       -1.850000000E+01               0
GRID*              10200               0-7.400000000E+010.0000000000E+00+
*       -1.850000000E+01               0
GRID*              10201               0-7.200000000E+010.0000000000E+00+
*       -1.850000000E+01               0
GRID*              10202               0-7.000000000E+010.0000000000E+00+
*       -1.850000000E+01               0
GRID*              10203               0-6.800000000E+010.0000000000E+00+
*       -1.850000000E+01               0
GRID*              10204               0-6.600000000E+010.0000000000E+00+
*       -1.850000000E+01               0
GRID*              10205               0-6.400000000E+010.0000000000E+00+
*       -1.850000000E+01               0
GRID*              10206               0-6.200000000E+010.0000000000E+00+
*       -1.850000000E+01               0
GRID*              10207               0-6.000000000E+010.0000000000E+00+
*       -1.850000000E+01               0
GRID*              10208               0-5.800000000E+010.0000000000E+00+
*       -1.850000000E+01               0
GRID*              10209               0-5.600000000E+010.0000000000E+00+
*       -1.850000000E+01               0
GRID*              10210               0-5.400000000E+010.0000000000E+00+
*       -1.850000000E+01               0
GRID*              10211               0-5.200000000E+010.0000000000E+00+
*       -1.850000000E+01               0
GRID*              10212               0-5.000000000E+010.0000000000E+00+
*       -1.850000000E+01               0
GRID*              10213               0-4.800000000E+010.0000000000E+00+
*       -1.850000000E+01               0
GRID*              10214               0-4.600000000E+010.0000000000E+00+
*       -1.850000000E+01               0
GRID*              10215               0-4.400000000E+010.0000000000E+00+
*       -1.850000000E+01               0
GRID*              10216               0-4.200000000E+010.0000000000E+00+
*       -1.850000000E+01               0
GRID*              10217               0-4.000000000E+010.0000000000E+00+
*       -1.850000000E+01               0
GRID*              10218               0-3.800000000E+010.0000000000E+00+
*       -1.850000000E+01               0
GRID*              10219               0-3.600000000E+010.0000000000E+00+
*       -1.850000000E+01               0
GRID*              10220               0-3.400000000E+010.0000000000E+00+
*       -1.850000000E+01               0
GRID*              10221               0-3.200000000E+010.0000000000E+00+
*       -1.850000000E+01               0
GRID*              10222               0-3.000000000E+010.0000000000E+00+
*       -1.850000000E+01               0
GRID*              10223               0-2.800000000E+010.0000000000E+00+
*       -1.850000000E+01               0
GRID*              10224               0-2.600000000E+010.0000000000E+00+
*       -1.850000000E+01               0
GRID*              10225               0-2.400000000E+010.0000000000E+00+
*       -1.850000000E+01               0
GRID*              10226               0-2.200000000E+010.0000000000E+00+
*       -1.850000000E+01               0
GRID*              10227               0-2.000000000E+010.0000000000E+00+
*       -1.850000000E+01               0
GRID*              10228               0-1.800000000E+010.0000000000E+00+
*       -1.850000000E+01               0
GRID*              10229               0-1.600000000E+010.0000000000E+00+
*       -1.850000000E+01               0
GRID*              10230               0-1.400000000E+010.0000000000E+00+
*       -1.850000000E+01               0
GRID*              10231               0-1.200000000E+010.0000000000E+00+
*       -1.850000000E+01               0
GRID*              10232               0-1.000000000E+010.0000000000E+00+
*       -1.850000000E+01               0
GRID*              10233               0-8.000000000E+000.0000000000E+00+
*       -1.850000000E+01               0
GRID*              10234               0-6.000000000E+000.0000000000E+00+
*       -1.850000000E+01               0
GRID*              10235               0-4.000000000E+000.0000000000E+00+
*       -1.850000000E+01               0
GRID*              10236               0-2.000000000E+000.0000000000E+00+
*       -1.850000000E+01               0
GRID*              10237               00.0000000000E+000.0000000000E+00+
*       -1.850000000E+01               0
GRID*              10238               02.0000000000E+000.0000000000E+00+
*       -1.850000000E+01               0
GRID*              10239               04.0000000000E+000.0000000000E+00+
*       -1.850000000E+01               0
GRID*              10240               06.0000000000E+000.0000000000E+00+
*       -1.850000000E+01               0
GRID*              10241               08.0000000000E+000.0000000000E+00+
*       -1.850000000E+01               0
GRID*              10242               01.0000000000E+010.0000000000E+00+
*       -1.850000000E+01               0
GRID*              10243               01.2000000000E+010.0000000000E+00+
*       -1.850000000E+01               0
GRID*              10244               01.4000000000E+010.0000000000E+00+
*       -1.850000000E+01               0
GRID*              10245               01.6000000000E+010.0000000000E+00+
*       -1.850000000E+01               0
GRID*              10246               01.8000000000E+010.0000000000E+00+
*       -1.850000000E+01               0
GRID*              10247               02.0000000000E+010.0000000000E+00+
*       -1.850000000E+01               0
GRID*              10248               02.2000000000E+010.0000000000E+00+
*       -1.850000000E+01               0
GRID*              10249               02.4000000000E+010.0000000000E+00+
*       -1.850000000E+01               0
GRID*              10250               02.6000000000E+010.0000000000E+00+
*       -1.850000000E+01               0
GRID*              10251               02.8000000000E+010.0000000000E+00+
*       -1.850000000E+01               0
GRID*              10252               03.0000000000E+010.0000000000E+00+
*       -1.850000000E+01               0
GRID*              10253               03.2000000000E+010.0000000000E+00+
*       -1.850000000E+01               0
GRID*              10254               03.4000000000E+010.0000000000E+00+
*       -1.850000000E+01               0
GRID*              10255               03.6000000000E+010.0000000000E+00+
*       -1.850000000E+01               0
GRID*              10256               03.8000000000E+010.0000000000E+00+
*       -1.850000000E+01               0
GRID*              10257               04.0000000000E+010.0000000000E+00+
*       -1.850000000E+01               0
GRID*              10258               04.2000000000E+010.0000000000E+00+
*       -1.850000000E+01               0
GRID*              10259               04.4000000000E+010.0000000000E+00+
*       -1.850000000E+01               0
GRID*              10260               04.6000000000E+010.0000000000E+00+
*       -1.850000000E+01               0
GRID*              10261               04.8000000000E+010.0000000000E+00+
*       -1.850000000E+01               0
GRID*              10262               05.0000000000E+010.0000000000E+00+
*       -1.850000000E+01               0
GRID*              10263               05.2000000000E+010.0000000000E+00+
*       -1.850000000E+01               0
GRID*              10264               05.4000000000E+010.0000000000E+00+
*       -1.850000000E+01               0
GRID*              10265               05.6000000000E+010.0000000000E+00+
*       -1.850000000E+01               0
GRID*              10266               05.8000000000E+010.0000000000E+00+
*       -1.850000000E+01               0
GRID*              10267               06.0000000000E+010.0000000000E+00+
*       -1.850000000E+01               0
GRID*              10268               06.2000000000E+010.0000000000E+00+
*       -1.850000000E+01               0
GRID*              10269               06.4000000000E+010.0000000000E+00+
*       -1.850000000E+01               0
GRID*              10270               06.6000000000E+010.0000000000E+00+
*       -1.850000000E+01               0
GRID*              10271               06.8000000000E+010.0000000000E+00+
*       -1.850000000E+01               0
GRID*              10272               07.0000000000E+010.0000000000E+00+
*       -1.850000000E+01               0
GRID*              10273               07.2000000000E+010.0000000000E+00+
*       -1.850000000E+01               0
GRID*              10274               07.4000000000E+010.0000000000E+00+
*       -1.850000000E+01               0
GRID*              10275               0-7.300000000E+010.0000000000E+00+
*       1.8500000000E+01               0
GRID*              10276               0-7.100000000E+010.0000000000E+00+
*       1.8500000000E+01               0
GRID*              10277               0-6.900000000E+010.0000000000E+00+
*       1.8500000000E+01               0
GRID*              10278               0-6.700000000E+010.0000000000E+00+
*       1.8500000000E+01               0
GRID*              10279               0-6.500000000E+010.0000000000E+00+
*       1.8500000000E+01               0
GRID*              10280               0-6.300000000E+010.0000000000E+00+
*       1.8500000000E+01               0
GRID*              10281               0-6.100000000E+010.0000000000E+00+
*       1.8500000000E+01               0
GRID*              10282               0-5.900000000E+010.0000000000E+00+
*       1.8500000000E+01               0
GRID*              10283               0-5.700000000E+010.0000000000E+00+
*       1.8500000000E+01               0
GRID*              10284               0-5.500000000E+010.0000000000E+00+
*       1.8500000000E+01               0
GRID*              10285               0-5.300000000E+010.0000000000E+00+
*       1.8500000000E+01               0
GRID*              10286               0-5.100000000E+010.0000000000E+00+
*       1.8500000000E+01               0
GRID*              10287               0-4.900000000E+010.0000000000E+00+
*       1.8500000000E+01               0
GRID*              10288               0-4.700000000E+010.0000000000E+00+
*       1.8500000000E+01               0
GRID*              10289               0-4.500000000E+010.0000000000E+00+
*       1.8500000000E+01               0
GRID*              10290               0-4.300000000E+010.0000000000E+00+
*       1.8500000000E+01               0
GRID*              10291               0-4.100000000E+010.0000000000E+00+
*       1.8500000000E+01               0
GRID*              10292               0-3.900000000E+010.0000000000E+00+
*       1.8500000000E+01               0
GRID*              10293               0-3.700000000E+010.0000000000E+00+
*       1.8500000000E+01               0
GRID*              10294               0-3.500000000E+010.0000000000E+00+
*       1.8500000000E+01               0
GRID*              10295               0-3.300000000E+010.0000000000E+00+
*       1.8500000000E+01               0
GRID*              10296               0-3.100000000E+010.0000000000E+00+
*       1.8500000000E+01               0
GRID*              10297               0-2.900000000E+010.0000000000E+00+
*       1.8500000000E+01               0
GRID*              10298               0-2.700000000E+010.0000000000E+00+
*       1.8500000000E+01               0
GRID*              10299               0-2.500000000E+010.0000000000E+00+
*       1.8500000000E+01               0
GRID*              10300               0-2.300000000E+010.0000000000E+00+
*       1.8500000000E+01               0
GRID*              10301               0-2.100000000E+010.0000000000E+00+
*       1.8500000000E+01               0
GRID*              10302               0-1.900000000E+010.0000000000E+00+
*       1.8500000000E+01               0
GRID*              10303               0-1.700000000E+010.0000000000E+00+
*       1.8500000000E+01               0
GRID*              10304               0-1.500000000E+010.0000000000E+00+
*       1.8500000000E+01               0
GRID*              10305               0-1.300000000E+010.0000000000E+00+
*       1.8500000000E+01               0
GRID*              10306               0-1.100000000E+010.0000000000E+00+
*       1.8500000000E+01               0
GRID*              10307               0-9.000000000E+000.0000000000E+00+
*       1.8500000000E+01               0
GRID*              10308               0-7.000000000E+000.0000000000E+00+
*       1.8500000000E+01               0
GRID*              10309               0-5.000000000E+000.0000000000E+00+
*       1.8500000000E+01               0
GRID*              10310               0-3.000000000E+000.0000000000E+00+
*       1.8500000000E+01               0
GRID*              10311               0-1.000000000E+000.0000000000E+00+
*       1.8500000000E+01               0
GRID*              10312               01.0000000000E+000.0000000000E+00+
*       1.8500000000E+01               0
GRID*              10313               03.0000000000E+000.0000000000E+00+
*       1.8500000000E+01               0
GRID*              10314               05.0000000000E+000.0000000000E+00+
*       1.8500000000E+01               0
GRID*              10315               07.0000000000E+000.0000000000E+00+
*       1.8500000000E+01               0
GRID*              10316               09.0000000000E+000.0000000000E+00+
*       1.8500000000E+01               0
GRID*              10317               01.1000000000E+010.0000000000E+00+
*       1.8500000000E+01               0
GRID*              10318               01.3000000000E+010.0000000000E+00+
*       1.8500000000E+01               0
GRID*              10319               01.5000000000E+010.0000000000E+00+
*       1.8500000000E+01               0
GRID*              10320               01.7000000000E+010.0000000000E+00+
*       1.8500000000E+01               0
GRID*              10321               01.9000000000E+010.0000000000E+00+
*       1.8500000000E+01               0
GRID*              10322               02.1000000000E+010.0000000000E+00+
*       1.8500000000E+01               0
GRID*              10323               02.3000000000E+010.0000000000E+00+
*       1.8500000000E+01               0
GRID*              10324               02.5000000000E+010.0000000000E+00+
*       1.8500000000E+01               0
GRID*              10325               02.7000000000E+010.0000000000E+00+
*       1.8500000000E+01               0
GRID*              10326               02.9000000000E+010.0000000000E+00+
*       1.8500000000E+01               0
GRID*              10327               03.1000000000E+010.0000000000E+00+
*       1.8500000000E+01               0
GRID*              10328               03.3000000000E+010.0000000000E+00+
*       1.8500000000E+01               0
GRID*              10329               03.5000000000E+010.0000000000E+00+
*       1.8500000000E+01               0
GRID*              10330               03.7000000000E+010.0000000000E+00+
*       1.8500000000E+01               0
GRID*              10331               03.9000000000E+010.0000000000E+00+
*       1.8500000000E+01               0
GRID*              10332               04.1000000000E+010.0000000000E+00+
*       1.8500000000E+01               0
GRID*              10333               04.3000000000E+010.0000000000E+00+
*       1.8500000000E+01               0
GRID*              10334               04.5000000000E+010.0000000000E+00+
*       1.8500000000E+01               0
GRID*              10335               04.7000000000E+010.0000000000E+00+
*       1.8500000000E+01               0
GRID*              10336               04.9000000000E+010.0000000000E+00+
*       1.8500000000E+01               0
GRID*              10337               05.1000000000E+010.0000000000E+00+
*       1.8500000000E+01               0
GRID*              10338               05.3000000000E+010.0000000000E+00+
*       1.8500000000E+01               0
GRID*              10339               05.5000000000E+010.0000000000E+00+
*       1.8500000000E+01               0
GRID*              10340               05.7000000000E+010.0000000000E+00+
*       1.8500000000E+01               0
GRID*              10341               05.9000000000E+010.0000000000E+00+
*       1.8500000000E+01               0
GRID*              10342               06.1000000000E+010.0000000000E+00+
*       1.8500000000E+01               0
GRID*              10343               06.3000000000E+010.0000000000E+00+
*       1.8500000000E+01               0
GRID*              10344               06.5000000000E+010.0000000000E+00+
*       1.8500000000E+01               0
GRID*              10345               06.7000000000E+010.0000000000E+00+
*       1.8500000000E+01               0
GRID*              10346               06.9000000000E+010.0000000000E+00+
*       1.8500000000E+01               0
GRID*              10347               07.1000000000E+010.0000000000E+00+
*       1.8500000000E+01               0
GRID*              10348               07.3000000000E+010.0000000000E+00+
*       1.8500000000E+01               0
GRID*              10349               07.4000000000E+010.0000000000E+00+
*       1.8500000000E+01               0
GRID*              10350               07.2000000000E+010.0000000000E+00+
*       1.8500000000E+01               0
GRID*              10351               07.0000000000E+010.0000000000E+00+
*       1.8500000000E+01               0
GRID*              10352               06.8000000000E+010.0000000000E+00+
*       1.8500000000E+01               0
GRID*              10353               06.6000000000E+010.0000000000E+00+
*       1.8500000000E+01               0
GRID*              10354               06.4000000000E+010.0000000000E+00+
*       1.8500000000E+01               0
GRID*              10355               06.2000000000E+010.0000000000E+00+
*       1.8500000000E+01               0
GRID*              10356               06.0000000000E+010.0000000000E+00+
*       1.8500000000E+01               0
GRID*              10357               05.8000000000E+010.0000000000E+00+
*       1.8500000000E+01               0
GRID*              10358               05.6000000000E+010.0000000000E+00+
*       1.8500000000E+01               0
GRID*              10359               05.4000000000E+010.0000000000E+00+
*       1.8500000000E+01               0
GRID*              10360               05.2000000000E+010.0000000000E+00+
*       1.8500000000E+01               0
GRID*              10361               05.0000000000E+010.0000000000E+00+
*       1.8500000000E+01               0
GRID*              10362               04.8000000000E+010.0000000000E+00+
*       1.8500000000E+01               0
GRID*              10363               04.6000000000E+010.0000000000E+00+
*       1.8500000000E+01               0
GRID*              10364               04.4000000000E+010.0000000000E+00+
*       1.8500000000E+01               0
GRID*              10365               04.2000000000E+010.0000000000E+00+
*       1.8500000000E+01               0
GRID*              10366               04.0000000000E+010.0000000000E+00+
*       1.8500000000E+01               0
GRID*              10367               03.8000000000E+010.0000000000E+00+
*       1.8500000000E+01               0
GRID*              10368               03.6000000000E+010.0000000000E+00+
*       1.8500000000E+01               0
GRID*              10369               03.4000000000E+010.0000000000E+00+
*       1.8500000000E+01               0
GRID*              10370               03.2000000000E+010.0000000000E+00+
*       1.8500000000E+01               0
GRID*              10371               03.0000000000E+010.0000000000E+00+
*       1.8500000000E+01               0
GRID*              10372               02.8000000000E+010.0000000000E+00+
*       1.8500000000E+01               0
GRID*              10373               02.6000000000E+010.0000000000E+00+
*       1.8500000000E+01               0
GRID*              10374               02.4000000000E+010.0000000000E+00+
*       1.8500000000E+01               0
GRID*              10375               02.2000000000E+010.0000000000E+00+
*       1.8500000000E+01               0
GRID*              10376               02.0000000000E+010.0000000000E+00+
*       1.8500000000E+01               0
GRID*              10377               01.8000000000E+010.0000000000E+00+
*       1.8500000000E+01               0
GRID*              10378               01.6000000000E+010.0000000000E+00+
*       1.8500000000E+01               0
GRID*              10379               01.4000000000E+010.0000000000E+00+
*       1.8500000000E+01               0
GRID*              10380               01.2000000000E+010.0000000000E+00+
*       1.8500000000E+01               0
GRID*              10381               01.0000000000E+010.0000000000E+00+
*       1.8500000000E+01               0
GRID*              10382               08.0000000000E+000.0000000000E+00+
*       1.8500000000E+01               0
GRID*              10383               06.0000000000E+000.0000000000E+00+
*       1.8500000000E+01               0
GRID*              10384               04.0000000000E+000.0000000000E+00+
*       1.8500000000E+01               0
GRID*              10385               02.0000000000E+000.0000000000E+00+
*       1.8500000000E+01               0
GRID*              10386               00.0000000000E+000.0000000000E+00+
*       1.8500000000E+01               0
GRID*              10387               0-2.000000000E+000.0000000000E+00+
*       1.8500000000E+01               0
GRID*              10388               0-4.000000000E+000.0000000000E+00+
*       1.8500000000E+01               0
GRID*              10389               0-6.000000000E+000.0000000000E+00+
*       1.8500000000E+01               0
GRID*              10390               0-8.000000000E+000.0000000000E+00+
*       1.8500000000E+01               0
GRID*              10391               0-1.000000000E+010.0000000000E+00+
*       1.8500000000E+01               0
GRID*              10392               0-1.200000000E+010.0000000000E+00+
*       1.8500000000E+01               0
GRID*              10393               0-1.400000000E+010.0000000000E+00+
*       1.8500000000E+01               0
GRID*              10394               0-1.600000000E+010.0000000000E+00+
*       1.8500000000E+01               0
GRID*              10395               0-1.800000000E+010.0000000000E+00+
*       1.8500000000E+01               0
GRID*              10396               0-2.000000000E+010.0000000000E+00+
*       1.8500000000E+01               0
GRID*              10397               0-2.200000000E+010.0000000000E+00+
*       1.8500000000E+01               0
GRID*              10398               0-2.400000000E+010.0000000000E+00+
*       1.8500000000E+01               0
GRID*              10399               0-2.600000000E+010.0000000000E+00+
*       1.8500000000E+01               0
GRID*              10400               0-2.800000000E+010.0000000000E+00+
*       1.8500000000E+01               0
GRID*              10401               0-3.000000000E+010.0000000000E+00+
*       1.8500000000E+01               0
GRID*              10402               0-3.200000000E+010.0000000000E+00+
*       1.8500000000E+01               0
GRID*              10403               0-3.400000000E+010.0000000000E+00+
*       1.8500000000E+01               0
GRID*              10404               0-3.600000000E+010.0000000000E+00+
*       1.8500000000E+01               0
GRID*              10405               0-3.800000000E+010.0000000000E+00+
*       1.8500000000E+01               0
GRID*              10406               0-4.000000000E+010.0000000000E+00+
*       1.8500000000E+01               0
GRID*              10407               0-4.200000000E+010.0000000000E+00+
*       1.8500000000E+01               0
GRID*              10408               0-4.400000000E+010.0000000000E+00+
*       1.8500000000E+01               0
GRID*              10409               0-4.600000000E+010.0000000000E+00+
*       1.8500000000E+01               0
GRID*              10410               0-4.800000000E+010.0000000000E+00+
*       1.8500000000E+01               0
GRID*              10411               0-5.000000000E+010.0000000000E+00+
*       1.8500000000E+01               0
GRID*              10412               0-5.200000000E+010.0000000000E+00+
*       1.8500000000E+01               0
GRID*              10413               0-5.400000000E+010.0000000000E+00+
*       1.8500000000E+01               0
GRID*              10414               0-5.600000000E+010.0000000000E+00+
*       1.8500000000E+01               0
GRID*              10415               0-5.800000000E+010.0000000000E+00+
*       1.8500000000E+01               0
GRID*              10416               0-6.000000000E+010.0000000000E+00+
*       1.8500000000E+01               0
GRID*              10417               0-6.200000000E+010.0000000000E+00+
*       1.8500000000E+01               0
GRID*              10418               0-6.400000000E+010.0000000000E+00+
*       1.8500000000E+01               0
GRID*              10419               0-6.600000000E+010.0000000000E+00+
*       1.8500000000E+01               0
GRID*              10420               0-6.800000000E+010.0000000000E+00+
*       1.8500000000E+01               0
GRID*              10421               0-7.000000000E+010.0000000000E+00+
*       1.8500000000E+01               0
GRID*              10422               0-7.200000000E+010.0000000000E+00+
*       1.8500000000E+01               0
GRID*              10423               0-7.400000000E+010.0000000000E+00+
*       1.8500000000E+01               0
GRID*              10424               0-7.300000000E+012.8500000000E+01+
*       -1.850000000E+01               0
GRID*              10425               0-7.100000000E+012.8500000000E+01+
*       -1.850000000E+01               0
GRID*              10426               0-6.900000000E+012.8500000000E+01+
*       -1.850000000E+01               0
GRID*              10427               0-6.700000000E+012.8500000000E+01+
*       -1.850000000E+01               0
GRID*              10428               0-6.500000000E+012.8500000000E+01+
*       -1.850000000E+01               0
GRID*              10429               0-6.300000000E+012.8500000000E+01+
*       -1.850000000E+01               0
GRID*              10430               0-6.100000000E+012.8500000000E+01+
*       -1.850000000E+01               0
GRID*              10431               0-5.900000000E+012.8500000000E+01+
*       -1.850000000E+01               0
GRID*              10432               0-5.700000000E+012.8500000000E+01+
*       -1.850000000E+01               0
GRID*              10433               0-5.500000000E+012.8500000000E+01+
*       -1.850000000E+01               0
GRID*              10434               0-5.300000000E+012.8500000000E+01+
*       -1.850000000E+01               0
GRID*              10435               0-5.100000000E+012.8500000000E+01+
*       -1.850000000E+01               0
GRID*              10436               0-4.900000000E+012.8500000000E+01+
*       -1.850000000E+01               0
GRID*              10437               0-4.700000000E+012.8500000000E+01+
*       -1.850000000E+01               0
GRID*              10438               0-4.500000000E+012.8500000000E+01+
*       -1.850000000E+01               0
GRID*              10439               0-4.300000000E+012.8500000000E+01+
*       -1.850000000E+01               0
GRID*              10440               0-4.100000000E+012.8500000000E+01+
*       -1.850000000E+01               0
GRID*              10441               0-3.900000000E+012.8500000000E+01+
*       -1.850000000E+01               0
GRID*              10442               0-3.700000000E+012.8500000000E+01+
*       -1.850000000E+01               0
GRID*              10443               0-3.500000000E+012.8500000000E+01+
*       -1.850000000E+01               0
GRID*              10444               0-3.300000000E+012.8500000000E+01+
*       -1.850000000E+01               0
GRID*              10445               0-3.100000000E+012.8500000000E+01+
*       -1.850000000E+01               0
GRID*              10446               0-2.900000000E+012.8500000000E+01+
*       -1.850000000E+01               0
GRID*              10447               0-2.700000000E+012.8500000000E+01+
*       -1.850000000E+01               0
GRID*              10448               0-2.500000000E+012.8500000000E+01+
*       -1.850000000E+01               0
GRID*              10449               0-2.300000000E+012.8500000000E+01+
*       -1.850000000E+01               0
GRID*              10450               0-2.100000000E+012.8500000000E+01+
*       -1.850000000E+01               0
GRID*              10451               0-1.900000000E+012.8500000000E+01+
*       -1.850000000E+01               0
GRID*              10452               0-1.700000000E+012.8500000000E+01+
*       -1.850000000E+01               0
GRID*              10453               0-1.500000000E+012.8500000000E+01+
*       -1.850000000E+01               0
GRID*              10454               0-1.300000000E+012.8500000000E+01+
*       -1.850000000E+01               0
GRID*              10455               0-1.100000000E+012.8500000000E+01+
*       -1.850000000E+01               0
GRID*              10456               0-9.000000000E+002.8500000000E+01+
*       -1.850000000E+01               0
GRID*              10457               0-7.000000000E+002.8500000000E+01+
*       -1.850000000E+01               0
GRID*              10458               0-5.000000000E+002.8500000000E+01+
*       -1.850000000E+01               0
GRID*              10459               0-3.000000000E+002.8500000000E+01+
*       -1.850000000E+01               0
GRID*              10460               0-1.000000000E+002.8500000000E+01+
*       -1.850000000E+01               0
GRID*              10461               01.0000000000E+002.8500000000E+01+
*       -1.850000000E+01               0
GRID*              10462               03.0000000000E+002.8500000000E+01+
*       -1.850000000E+01               0
GRID*              10463               05.0000000000E+002.8500000000E+01+
*       -1.850000000E+01               0
GRID*              10464               07.0000000000E+002.8500000000E+01+
*       -1.850000000E+01               0
GRID*              10465               09.0000000000E+002.8500000000E+01+
*       -1.850000000E+01               0
GRID*              10466               01.1000000000E+012.8500000000E+01+
*       -1.850000000E+01               0
GRID*              10467               01.3000000000E+012.8500000000E+01+
*       -1.850000000E+01               0
GRID*              10468               01.5000000000E+012.8500000000E+01+
*       -1.850000000E+01               0
GRID*              10469               01.7000000000E+012.8500000000E+01+
*       -1.850000000E+01               0
GRID*              10470               01.9000000000E+012.8500000000E+01+
*       -1.850000000E+01               0
GRID*              10471               02.1000000000E+012.8500000000E+01+
*       -1.850000000E+01               0
GRID*              10472               02.3000000000E+012.8500000000E+01+
*       -1.850000000E+01               0
GRID*              10473               02.5000000000E+012.8500000000E+01+
*       -1.850000000E+01               0
GRID*              10474               02.7000000000E+012.8500000000E+01+
*       -1.850000000E+01               0
GRID*              10475               02.9000000000E+012.8500000000E+01+
*       -1.850000000E+01               0
GRID*              10476               03.1000000000E+012.8500000000E+01+
*       -1.850000000E+01               0
GRID*              10477               03.3000000000E+012.8500000000E+01+
*       -1.850000000E+01               0
GRID*              10478               03.5000000000E+012.8500000000E+01+
*       -1.850000000E+01               0
GRID*              10479               03.7000000000E+012.8500000000E+01+
*       -1.850000000E+01               0
GRID*              10480               03.9000000000E+012.8500000000E+01+
*       -1.850000000E+01               0
GRID*              10481               04.1000000000E+012.8500000000E+01+
*       -1.850000000E+01               0
GRID*              10482               04.3000000000E+012.8500000000E+01+
*       -1.850000000E+01               0
GRID*              10483               04.5000000000E+012.8500000000E+01+
*       -1.850000000E+01               0
GRID*              10484               04.7000000000E+012.8500000000E+01+
*       -1.850000000E+01               0
GRID*              10485               04.9000000000E+012.8500000000E+01+
*       -1.850000000E+01               0
GRID*              10486               05.1000000000E+012.8500000000E+01+
*       -1.850000000E+01               0
GRID*              10487               05.3000000000E+012.8500000000E+01+
*       -1.850000000E+01               0
GRID*              10488               05.5000000000E+012.8500000000E+01+
*       -1.850000000E+01               0
GRID*              10489               05.7000000000E+012.8500000000E+01+
*       -1.850000000E+01               0
GRID*              10490               05.9000000000E+012.8500000000E+01+
*       -1.850000000E+01               0
GRID*              10491               06.1000000000E+012.8500000000E+01+
*       -1.850000000E+01               0
GRID*              10492               06.3000000000E+012.8500000000E+01+
*       -1.850000000E+01               0
GRID*              10493               06.5000000000E+012.8500000000E+01+
*       -1.850000000E+01               0
GRID*              10494               06.7000000000E+012.8500000000E+01+
*       -1.850000000E+01               0
GRID*              10495               06.9000000000E+012.8500000000E+01+
*       -1.850000000E+01               0
GRID*              10496               07.1000000000E+012.8500000000E+01+
*       -1.850000000E+01               0
GRID*              10497               07.3000000000E+012.8500000000E+01+
*       -1.850000000E+01               0
GRID*              10498               0-7.400000000E+012.8500000000E+01+
*       -1.850000000E+01               0
GRID*              10499               0-7.200000000E+012.8500000000E+01+
*       -1.850000000E+01               0
GRID*              10500               0-7.000000000E+012.8500000000E+01+
*       -1.850000000E+01               0
GRID*              10501               0-6.800000000E+012.8500000000E+01+
*       -1.850000000E+01               0
GRID*              10502               0-6.600000000E+012.8500000000E+01+
*       -1.850000000E+01               0
GRID*              10503               0-6.400000000E+012.8500000000E+01+
*       -1.850000000E+01               0
GRID*              10504               0-6.200000000E+012.8500000000E+01+
*       -1.850000000E+01               0
GRID*              10505               0-6.000000000E+012.8500000000E+01+
*       -1.850000000E+01               0
GRID*              10506               0-5.800000000E+012.8500000000E+01+
*       -1.850000000E+01               0
GRID*              10507               0-5.600000000E+012.8500000000E+01+
*       -1.850000000E+01               0
GRID*              10508               0-5.400000000E+012.8500000000E+01+
*       -1.850000000E+01               0
GRID*              10509               0-5.200000000E+012.8500000000E+01+
*       -1.850000000E+01               0
GRID*              10510               0-5.000000000E+012.8500000000E+01+
*       -1.850000000E+01               0
GRID*              10511               0-4.800000000E+012.8500000000E+01+
*       -1.850000000E+01               0
GRID*              10512               0-4.600000000E+012.8500000000E+01+
*       -1.850000000E+01               0
GRID*              10513               0-4.400000000E+012.8500000000E+01+
*       -1.850000000E+01               0
GRID*              10514               0-4.200000000E+012.8500000000E+01+
*       -1.850000000E+01               0
GRID*              10515               0-4.000000000E+012.8500000000E+01+
*       -1.850000000E+01               0
GRID*              10516               0-3.800000000E+012.8500000000E+01+
*       -1.850000000E+01               0
GRID*              10517               0-3.600000000E+012.8500000000E+01+
*       -1.850000000E+01               0
GRID*              10518               0-3.400000000E+012.8500000000E+01+
*       -1.850000000E+01               0
GRID*              10519               0-3.200000000E+012.8500000000E+01+
*       -1.850000000E+01               0
GRID*              10520               0-3.000000000E+012.8500000000E+01+
*       -1.850000000E+01               0
GRID*              10521               0-2.800000000E+012.8500000000E+01+
*       -1.850000000E+01               0
GRID*              10522               0-2.600000000E+012.8500000000E+01+
*       -1.850000000E+01               0
GRID*              10523               0-2.400000000E+012.8500000000E+01+
*       -1.850000000E+01               0
GRID*              10524               0-2.200000000E+012.8500000000E+01+
*       -1.850000000E+01               0
GRID*              10525               0-2.000000000E+012.8500000000E+01+
*       -1.850000000E+01               0
GRID*              10526               0-1.800000000E+012.8500000000E+01+
*       -1.850000000E+01               0
GRID*              10527               0-1.600000000E+012.8500000000E+01+
*       -1.850000000E+01               0
GRID*              10528               0-1.400000000E+012.8500000000E+01+
*       -1.850000000E+01               0
GRID*              10529               0-1.200000000E+012.8500000000E+01+
*       -1.850000000E+01               0
GRID*              10530               0-1.000000000E+012.8500000000E+01+
*       -1.850000000E+01               0
GRID*              10531               0-8.000000000E+002.8500000000E+01+
*       -1.850000000E+01               0
GRID*              10532               0-6.000000000E+002.8500000000E+01+
*       -1.850000000E+01               0
GRID*              10533               0-4.000000000E+002.8500000000E+01+
*       -1.850000000E+01               0
GRID*              10534               0-2.000000000E+002.8500000000E+01+
*       -1.850000000E+01               0
GRID*              10535               00.0000000000E+002.8500000000E+01+
*       -1.850000000E+01               0
GRID*              10536               02.0000000000E+002.8500000000E+01+
*       -1.850000000E+01               0
GRID*              10537               04.0000000000E+002.8500000000E+01+
*       -1.850000000E+01               0
GRID*              10538               06.0000000000E+002.8500000000E+01+
*       -1.850000000E+01               0
GRID*              10539               08.0000000000E+002.8500000000E+01+
*       -1.850000000E+01               0
GRID*              10540               01.0000000000E+012.8500000000E+01+
*       -1.850000000E+01               0
GRID*              10541               01.2000000000E+012.8500000000E+01+
*       -1.850000000E+01               0
GRID*              10542               01.4000000000E+012.8500000000E+01+
*       -1.850000000E+01               0
GRID*              10543               01.6000000000E+012.8500000000E+01+
*       -1.850000000E+01               0
GRID*              10544               01.8000000000E+012.8500000000E+01+
*       -1.850000000E+01               0
GRID*              10545               02.0000000000E+012.8500000000E+01+
*       -1.850000000E+01               0
GRID*              10546               02.2000000000E+012.8500000000E+01+
*       -1.850000000E+01               0
GRID*              10547               02.4000000000E+012.8500000000E+01+
*       -1.850000000E+01               0
GRID*              10548               02.6000000000E+012.8500000000E+01+
*       -1.850000000E+01               0
GRID*              10549               02.8000000000E+012.8500000000E+01+
*       -1.850000000E+01               0
GRID*              10550               03.0000000000E+012.8500000000E+01+
*       -1.850000000E+01               0
GRID*              10551               03.2000000000E+012.8500000000E+01+
*       -1.850000000E+01               0
GRID*              10552               03.4000000000E+012.8500000000E+01+
*       -1.850000000E+01               0
GRID*              10553               03.6000000000E+012.8500000000E+01+
*       -1.850000000E+01               0
GRID*              10554               03.8000000000E+012.8500000000E+01+
*       -1.850000000E+01               0
GRID*              10555               04.0000000000E+012.8500000000E+01+
*       -1.850000000E+01               0
GRID*              10556               04.2000000000E+012.8500000000E+01+
*       -1.850000000E+01               0
GRID*              10557               04.4000000000E+012.8500000000E+01+
*       -1.850000000E+01               0
GRID*              10558               04.6000000000E+012.8500000000E+01+
*       -1.850000000E+01               0
GRID*              10559               04.8000000000E+012.8500000000E+01+
*       -1.850000000E+01               0
GRID*              10560               05.0000000000E+012.8500000000E+01+
*       -1.850000000E+01               0
GRID*              10561               05.2000000000E+012.8500000000E+01+
*       -1.850000000E+01               0
GRID*              10562               05.4000000000E+012.8500000000E+01+
*       -1.850000000E+01               0
GRID*              10563               05.6000000000E+012.8500000000E+01+
*       -1.850000000E+01               0
GRID*              10564               05.8000000000E+012.8500000000E+01+
*       -1.850000000E+01               0
GRID*              10565               06.0000000000E+012.8500000000E+01+
*       -1.850000000E+01               0
GRID*              10566               06.2000000000E+012.8500000000E+01+
*       -1.850000000E+01               0
GRID*              10567               06.4000000000E+012.8500000000E+01+
*       -1.850000000E+01               0
GRID*              10568               06.6000000000E+012.8500000000E+01+
*       -1.850000000E+01               0
GRID*              10569               06.8000000000E+012.8500000000E+01+
*       -1.850000000E+01               0
GRID*              10570               07.0000000000E+012.8500000000E+01+
*       -1.850000000E+01               0
GRID*              10571               07.2000000000E+012.8500000000E+01+
*       -1.850000000E+01               0
GRID*              10572               07.4000000000E+012.8500000000E+01+
*       -1.850000000E+01               0
GRID*              10573               07.3000000000E+012.8500000000E+01+
*       1.8500000000E+01               0
GRID*              10574               07.1000000000E+012.8500000000E+01+
*       1.8500000000E+01               0
GRID*              10575               06.9000000000E+012.8500000000E+01+
*       1.8500000000E+01               0
GRID*              10576               06.7000000000E+012.8500000000E+01+
*       1.8500000000E+01               0
GRID*              10577               06.5000000000E+012.8500000000E+01+
*       1.8500000000E+01               0
GRID*              10578               06.3000000000E+012.8500000000E+01+
*       1.8500000000E+01               0
GRID*              10579               06.1000000000E+012.8500000000E+01+
*       1.8500000000E+01               0
GRID*              10580               05.9000000000E+012.8500000000E+01+
*       1.8500000000E+01               0
GRID*              10581               05.7000000000E+012.8500000000E+01+
*       1.8500000000E+01               0
GRID*              10582               05.5000000000E+012.8500000000E+01+
*       1.8500000000E+01               0
GRID*              10583               05.3000000000E+012.8500000000E+01+
*       1.8500000000E+01               0
GRID*              10584               05.1000000000E+012.8500000000E+01+
*       1.8500000000E+01               0
GRID*              10585               04.9000000000E+012.8500000000E+01+
*       1.8500000000E+01               0
GRID*              10586               04.7000000000E+012.8500000000E+01+
*       1.8500000000E+01               0
GRID*              10587               04.5000000000E+012.8500000000E+01+
*       1.8500000000E+01               0
GRID*              10588               04.3000000000E+012.8500000000E+01+
*       1.8500000000E+01               0
GRID*              10589               04.1000000000E+012.8500000000E+01+
*       1.8500000000E+01               0
GRID*              10590               03.9000000000E+012.8500000000E+01+
*       1.8500000000E+01               0
GRID*              10591               03.7000000000E+012.8500000000E+01+
*       1.8500000000E+01               0
GRID*              10592               03.5000000000E+012.8500000000E+01+
*       1.8500000000E+01               0
GRID*              10593               03.3000000000E+012.8500000000E+01+
*       1.8500000000E+01               0
GRID*              10594               03.1000000000E+012.8500000000E+01+
*       1.8500000000E+01               0
GRID*              10595               02.9000000000E+012.8500000000E+01+
*       1.8500000000E+01               0
GRID*              10596               02.7000000000E+012.8500000000E+01+
*       1.8500000000E+01               0
GRID*              10597               02.5000000000E+012.8500000000E+01+
*       1.8500000000E+01               0
GRID*              10598               02.3000000000E+012.8500000000E+01+
*       1.8500000000E+01               0
GRID*              10599               02.1000000000E+012.8500000000E+01+
*       1.8500000000E+01               0
GRID*              10600               01.9000000000E+012.8500000000E+01+
*       1.8500000000E+01               0
GRID*              10601               01.7000000000E+012.8500000000E+01+
*       1.8500000000E+01               0
GRID*              10602               01.5000000000E+012.8500000000E+01+
*       1.8500000000E+01               0
GRID*              10603               01.3000000000E+012.8500000000E+01+
*       1.8500000000E+01               0
GRID*              10604               01.1000000000E+012.8500000000E+01+
*       1.8500000000E+01               0
GRID*              10605               09.0000000000E+002.8500000000E+01+
*       1.8500000000E+01               0
GRID*              10606               07.0000000000E+002.8500000000E+01+
*       1.8500000000E+01               0
GRID*              10607               05.0000000000E+002.8500000000E+01+
*       1.8500000000E+01               0
GRID*              10608               03.0000000000E+002.8500000000E+01+
*       1.8500000000E+01               0
GRID*              10609               01.0000000000E+002.8500000000E+01+
*       1.8500000000E+01               0
GRID*              10610               0-1.000000000E+002.8500000000E+01+
*       1.8500000000E+01               0
GRID*              10611               0-3.000000000E+002.8500000000E+01+
*       1.8500000000E+01               0
GRID*              10612               0-5.000000000E+002.8500000000E+01+
*       1.8500000000E+01               0
GRID*              10613               0-7.000000000E+002.8500000000E+01+
*       1.8500000000E+01               0
GRID*              10614               0-9.000000000E+002.8500000000E+01+
*       1.8500000000E+01               0
GRID*              10615               0-1.100000000E+012.8500000000E+01+
*       1.8500000000E+01               0
GRID*              10616               0-1.300000000E+012.8500000000E+01+
*       1.8500000000E+01               0
GRID*              10617               0-1.500000000E+012.8500000000E+01+
*       1.8500000000E+01               0
GRID*              10618               0-1.700000000E+012.8500000000E+01+
*       1.8500000000E+01               0
GRID*              10619               0-1.900000000E+012.8500000000E+01+
*       1.8500000000E+01               0
GRID*              10620               0-2.100000000E+012.8500000000E+01+
*       1.8500000000E+01               0
GRID*              10621               0-2.300000000E+012.8500000000E+01+
*       1.8500000000E+01               0
GRID*              10622               0-2.500000000E+012.8500000000E+01+
*       1.8500000000E+01               0
GRID*              10623               0-2.700000000E+012.8500000000E+01+
*       1.8500000000E+01               0
GRID*              10624               0-2.900000000E+012.8500000000E+01+
*       1.8500000000E+01               0
GRID*              10625               0-3.100000000E+012.8500000000E+01+
*       1.8500000000E+01               0
GRID*              10626               0-3.300000000E+012.8500000000E+01+
*       1.8500000000E+01               0
GRID*              10627               0-3.500000000E+012.8500000000E+01+
*       1.8500000000E+01               0
GRID*              10628               0-3.700000000E+012.8500000000E+01+
*       1.8500000000E+01               0
GRID*              10629               0-3.900000000E+012.8500000000E+01+
*       1.8500000000E+01               0
GRID*              10630               0-4.100000000E+012.8500000000E+01+
*       1.8500000000E+01               0
GRID*              10631               0-4.300000000E+012.8500000000E+01+
*       1.8500000000E+01               0
GRID*              10632               0-4.500000000E+012.8500000000E+01+
*       1.8500000000E+01               0
GRID*              10633               0-4.700000000E+012.8500000000E+01+
*       1.8500000000E+01               0
GRID*              10634               0-4.900000000E+012.8500000000E+01+
*       1.8500000000E+01               0
GRID*              10635               0-5.100000000E+012.8500000000E+01+
*       1.8500000000E+01               0
GRID*              10636               0-5.300000000E+012.8500000000E+01+
*       1.8500000000E+01               0
GRID*              10637               0-5.500000000E+012.8500000000E+01+
*       1.8500000000E+01               0
GRID*              10638               0-5.700000000E+012.8500000000E+01+
*       1.8500000000E+01               0
GRID*              10639               0-5.900000000E+012.8500000000E+01+
*       1.8500000000E+01               0
GRID*              10640               0-6.100000000E+012.8500000000E+01+
*       1.8500000000E+01               0
GRID*              10641               0-6.300000000E+012.8500000000E+01+
*       1.8500000000E+01               0
GRID*              10642               0-6.500000000E+012.8500000000E+01+
*       1.8500000000E+01               0
GRID*              10643               0-6.700000000E+012.8500000000E+01+
*       1.8500000000E+01               0
GRID*              10644               0-6.900000000E+012.8500000000E+01+
*       1.8500000000E+01               0
GRID*              10645               0-7.100000000E+012.8500000000E+01+
*       1.8500000000E+01               0
GRID*              10646               0-7.300000000E+012.8500000000E+01+
*       1.8500000000E+01               0
GRID*              10647               07.4000000000E+012.8500000000E+01+
*       1.8500000000E+01               0
GRID*              10648               07.2000000000E+012.8500000000E+01+
*       1.8500000000E+01               0
GRID*              10649               07.0000000000E+012.8500000000E+01+
*       1.8500000000E+01               0
GRID*              10650               06.8000000000E+012.8500000000E+01+
*       1.8500000000E+01               0
GRID*              10651               06.6000000000E+012.8500000000E+01+
*       1.8500000000E+01               0
GRID*              10652               06.4000000000E+012.8500000000E+01+
*       1.8500000000E+01               0
GRID*              10653               06.2000000000E+012.8500000000E+01+
*       1.8500000000E+01               0
GRID*              10654               06.0000000000E+012.8500000000E+01+
*       1.8500000000E+01               0
GRID*              10655               05.8000000000E+012.8500000000E+01+
*       1.8500000000E+01               0
GRID*              10656               05.6000000000E+012.8500000000E+01+
*       1.8500000000E+01               0
GRID*              10657               05.4000000000E+012.8500000000E+01+
*       1.8500000000E+01               0
GRID*              10658               05.2000000000E+012.8500000000E+01+
*       1.8500000000E+01               0
GRID*              10659               05.0000000000E+012.8500000000E+01+
*       1.8500000000E+01               0
GRID*              10660               04.8000000000E+012.8500000000E+01+
*       1.8500000000E+01               0
GRID*              10661               04.6000000000E+012.8500000000E+01+
*       1.8500000000E+01               0
GRID*              10662               04.4000000000E+012.8500000000E+01+
*       1.8500000000E+01               0
GRID*              10663               04.2000000000E+012.8500000000E+01+
*       1.8500000000E+01               0
GRID*              10664               04.0000000000E+012.8500000000E+01+
*       1.8500000000E+01               0
GRID*              10665               03.8000000000E+012.8500000000E+01+
*       1.8500000000E+01               0
GRID*              10666               03.6000000000E+012.8500000000E+01+
*       1.8500000000E+01               0
GRID*              10667               03.4000000000E+012.8500000000E+01+
*       1.8500000000E+01               0
GRID*              10668               03.2000000000E+012.8500000000E+01+
*       1.8500000000E+01               0
GRID*              10669               03.0000000000E+012.8500000000E+01+
*       1.8500000000E+01               0
GRID*              10670               02.8000000000E+012.8500000000E+01+
*       1.8500000000E+01               0
GRID*              10671               02.6000000000E+012.8500000000E+01+
*       1.8500000000E+01               0
GRID*              10672               02.4000000000E+012.8500000000E+01+
*       1.8500000000E+01               0
GRID*              10673               02.2000000000E+012.8500000000E+01+
*       1.8500000000E+01               0
GRID*              10674               02.0000000000E+012.8500000000E+01+
*       1.8500000000E+01               0
GRID*              10675               01.8000000000E+012.8500000000E+01+
*       1.8500000000E+01               0
GRID*              10676               01.6000000000E+012.8500000000E+01+
*       1.8500000000E+01               0
GRID*              10677               01.4000000000E+012.8500000000E+01+
*       1.8500000000E+01               0
GRID*              10678               01.2000000000E+012.8500000000E+01+
*       1.8500000000E+01               0
GRID*              10679               01.0000000000E+012.8500000000E+01+
*       1.8500000000E+01               0
GRID*              10680               08.0000000000E+002.8500000000E+01+
*       1.8500000000E+01               0
GRID*              10681               06.0000000000E+002.8500000000E+01+
*       1.8500000000E+01               0
GRID*              10682               04.0000000000E+002.8500000000E+01+
*       1.8500000000E+01               0
GRID*              10683               02.0000000000E+002.8500000000E+01+
*       1.8500000000E+01               0
GRID*              10684               00.0000000000E+002.8500000000E+01+
*       1.8500000000E+01               0
GRID*              10685               0-2.000000000E+002.8500000000E+01+
*       1.8500000000E+01               0
GRID*              10686               0-4.000000000E+002.8500000000E+01+
*       1.8500000000E+01               0
GRID*              10687               0-6.000000000E+002.8500000000E+01+
*       1.8500000000E+01               0
GRID*              10688               0-8.000000000E+002.8500000000E+01+
*       1.8500000000E+01               0
GRID*              10689               0-1.000000000E+012.8500000000E+01+
*       1.8500000000E+01               0
GRID*              10690               0-1.200000000E+012.8500000000E+01+
*       1.8500000000E+01               0
GRID*              10691               0-1.400000000E+012.8500000000E+01+
*       1.8500000000E+01               0
GRID*              10692               0-1.600000000E+012.8500000000E+01+
*       1.8500000000E+01               0
GRID*              10693               0-1.800000000E+012.8500000000E+01+
*       1.8500000000E+01               0
GRID*              10694               0-2.000000000E+012.8500000000E+01+
*       1.8500000000E+01               0
GRID*              10695               0-2.200000000E+012.8500000000E+01+
*       1.8500000000E+01               0
GRID*              10696               0-2.400000000E+012.8500000000E+01+
*       1.8500000000E+01               0
GRID*              10697               0-2.600000000E+012.8500000000E+01+
*       1.8500000000E+01               0
GRID*              10698               0-2.800000000E+012.8500000000E+01+
*       1.8500000000E+01               0
GRID*              10699               0-3.000000000E+012.8500000000E+01+
*       1.8500000000E+01               0
GRID*              10700               0-3.200000000E+012.8500000000E+01+
*       1.8500000000E+01               0
GRID*              10701               0-3.400000000E+012.8500000000E+01+
*       1.8500000000E+01               0
GRID*              10702               0-3.600000000E+012.8500000000E+01+
*       1.8500000000E+01               0
GRID*              10703               0-3.800000000E+012.8500000000E+01+
*       1.8500000000E+01               0
GRID*              10704               0-4.000000000E+012.8500000000E+01+
*       1.8500000000E+01               0
GRID*              10705               0-4.200000000E+012.8500000000E+01+
*       1.8500000000E+01               0
GRID*              10706               0-4.400000000E+012.8500000000E+01+
*       1.8500000000E+01               0
GRID*              10707               0-4.600000000E+012.8500000000E+01+
*       1.8500000000E+01               0
GRID*              10708               0-4.800000000E+012.8500000000E+01+
*       1.8500000000E+01               0
GRID*              10709               0-5.000000000E+012.8500000000E+01+
*       1.8500000000E+01               0
GRID*              10710               0-5.200000000E+012.8500000000E+01+
*       1.8500000000E+01               0
GRID*              10711               0-5.400000000E+012.8500000000E+01+
*       1.8500000000E+01               0
GRID*              10712               0-5.600000000E+012.8500000000E+01+
*       1.8500000000E+01               0
GRID*              10713               0-5.800000000E+012.8500000000E+01+
*       1.8500000000E+01               0
GRID*              10714               0-6.000000000E+012.8500000000E+01+
*       1.8500000000E+01               0
GRID*              10715               0-6.200000000E+012.8500000000E+01+
*       1.8500000000E+01               0
GRID*              10716               0-6.400000000E+012.8500000000E+01+
*       1.8500000000E+01               0
GRID*              10717               0-6.600000000E+012.8500000000E+01+
*       1.8500000000E+01               0
GRID*              10718               0-6.800000000E+012.8500000000E+01+
*       1.8500000000E+01               0
GRID*              10719               0-7.000000000E+012.8500000000E+01+
*       1.8500000000E+01               0
GRID*              10720               0-7.200000000E+012.8500000000E+01+
*       1.8500000000E+01               0
GRID*              10721               0-7.400000000E+012.8500000000E+01+
*       1.8500000000E+01               0
GRID*              10722               07.5000000000E+010.0000000000E+00+
*       -1.655263158E+01               0
GRID*              10723               07.5000000000E+010.0000000000E+00+
*       -1.460526316E+01               0
GRID*              10724               07.5000000000E+010.0000000000E+00+
*       -1.265789474E+01               0
GRID*              10725               07.5000000000E+010.0000000000E+00+
*       -1.071052632E+01               0
GRID*              10726               07.5000000000E+010.0000000000E+00+
*       -8.763157895E+00               0
GRID*              10727               07.5000000000E+010.0000000000E+00+
*       -6.815789474E+00               0
GRID*              10728               07.5000000000E+010.0000000000E+00+
*       -4.868421053E+00               0
GRID*              10729               07.5000000000E+010.0000000000E+00+
*       -2.921052632E+00               0
GRID*              10730               07.5000000000E+010.0000000000E+00+
*       -9.736842105E-01               0
GRID*              10731               07.5000000000E+010.0000000000E+00+
*       9.7368421053E-01               0
GRID*              10732               07.5000000000E+010.0000000000E+00+
*       2.9210526316E+00               0
GRID*              10733               07.5000000000E+010.0000000000E+00+
*       4.8684210526E+00               0
GRID*              10734               07.5000000000E+010.0000000000E+00+
*       6.8157894737E+00               0
GRID*              10735               07.5000000000E+010.0000000000E+00+
*       8.7631578947E+00               0
GRID*              10736               07.5000000000E+010.0000000000E+00+
*       1.0710526316E+01               0
GRID*              10737               07.5000000000E+010.0000000000E+00+
*       1.2657894737E+01               0
GRID*              10738               07.5000000000E+010.0000000000E+00+
*       1.4605263158E+01               0
GRID*              10739               07.5000000000E+010.0000000000E+00+
*       1.6552631579E+01               0
GRID*              10740               07.5000000000E+010.0000000000E+00+
*       1.7526315789E+01               0
GRID*              10741               07.5000000000E+010.0000000000E+00+
*       -1.752631579E+01               0
GRID*              10742               07.5000000000E+010.0000000000E+00+
*       -1.557894737E+01               0
GRID*              10743               07.5000000000E+010.0000000000E+00+
*       -1.363157895E+01               0
GRID*              10744               07.5000000000E+010.0000000000E+00+
*       -1.168421053E+01               0
GRID*              10745               07.5000000000E+010.0000000000E+00+
*       -9.736842105E+00               0
GRID*              10746               07.5000000000E+010.0000000000E+00+
*       -7.789473684E+00               0
GRID*              10747               07.5000000000E+010.0000000000E+00+
*       -5.842105263E+00               0
GRID*              10748               07.5000000000E+010.0000000000E+00+
*       -3.894736842E+00               0
GRID*              10749               07.5000000000E+010.0000000000E+00+
*       -1.947368421E+00               0
GRID*              10750               07.5000000000E+010.0000000000E+00+
*       0.0000000000E+00               0
GRID*              10751               07.5000000000E+010.0000000000E+00+
*       1.9473684211E+00               0
GRID*              10752               07.5000000000E+010.0000000000E+00+
*       3.8947368421E+00               0
GRID*              10753               07.5000000000E+010.0000000000E+00+
*       5.8421052632E+00               0
GRID*              10754               07.5000000000E+010.0000000000E+00+
*       7.7894736842E+00               0
GRID*              10755               07.5000000000E+010.0000000000E+00+
*       9.7368421053E+00               0
GRID*              10756               07.5000000000E+010.0000000000E+00+
*       1.1684210526E+01               0
GRID*              10757               07.5000000000E+010.0000000000E+00+
*       1.3631578947E+01               0
GRID*              10758               07.5000000000E+010.0000000000E+00+
*       1.5578947368E+01               0
GRID*              10759               07.5000000000E+012.6464285714E+01+
*       -1.850000000E+01               0
GRID*              10760               07.5000000000E+012.4428571429E+01+
*       -1.850000000E+01               0
GRID*              10761               07.5000000000E+012.2392857143E+01+
*       -1.850000000E+01               0
GRID*              10762               07.5000000000E+012.0357142857E+01+
*       -1.850000000E+01               0
GRID*              10763               07.5000000000E+011.8321428571E+01+
*       -1.850000000E+01               0
GRID*              10764               07.5000000000E+011.6285714286E+01+
*       -1.850000000E+01               0
GRID*              10765               07.5000000000E+011.4250000000E+01+
*       -1.850000000E+01               0
GRID*              10766               07.5000000000E+011.2214285714E+01+
*       -1.850000000E+01               0
GRID*              10767               07.5000000000E+011.0178571429E+01+
*       -1.850000000E+01               0
GRID*              10768               07.5000000000E+018.1428571429E+00+
*       -1.850000000E+01               0
GRID*              10769               07.5000000000E+016.1071428571E+00+
*       -1.850000000E+01               0
GRID*              10770               07.5000000000E+014.0714285714E+00+
*       -1.850000000E+01               0
GRID*              10771               07.5000000000E+012.0357142857E+00+
*       -1.850000000E+01               0
GRID*              10772               07.5000000000E+012.7482142857E+01+
*       -1.850000000E+01               0
GRID*              10773               07.5000000000E+012.5446428571E+01+
*       -1.850000000E+01               0
GRID*              10774               07.5000000000E+012.3410714286E+01+
*       -1.850000000E+01               0
GRID*              10775               07.5000000000E+012.1375000000E+01+
*       -1.850000000E+01               0
GRID*              10776               07.5000000000E+011.9339285714E+01+
*       -1.850000000E+01               0
GRID*              10777               07.5000000000E+011.7303571429E+01+
*       -1.850000000E+01               0
GRID*              10778               07.5000000000E+011.5267857143E+01+
*       -1.850000000E+01               0
GRID*              10779               07.5000000000E+011.3232142857E+01+
*       -1.850000000E+01               0
GRID*              10780               07.5000000000E+011.1196428571E+01+
*       -1.850000000E+01               0
GRID*              10781               07.5000000000E+019.1607142857E+00+
*       -1.850000000E+01               0
GRID*              10782               07.5000000000E+017.1250000000E+00+
*       -1.850000000E+01               0
GRID*              10783               07.5000000000E+015.0892857143E+00+
*       -1.850000000E+01               0
GRID*              10784               07.5000000000E+013.0535714286E+00+
*       -1.850000000E+01               0
GRID*              10785               07.5000000000E+011.0178571429E+00+
*       -1.850000000E+01               0
GRID*              10786               07.5000000000E+012.0357142857E+00+
*       1.8500000000E+01               0
GRID*              10787               07.5000000000E+014.0714285714E+00+
*       1.8500000000E+01               0
GRID*              10788               07.5000000000E+016.1071428571E+00+
*       1.8500000000E+01               0
GRID*              10789               07.5000000000E+018.1428571429E+00+
*       1.8500000000E+01               0
GRID*              10790               07.5000000000E+011.0178571429E+01+
*       1.8500000000E+01               0
GRID*              10791               07.5000000000E+011.2214285714E+01+
*       1.8500000000E+01               0
GRID*              10792               07.5000000000E+011.4250000000E+01+
*       1.8500000000E+01               0
GRID*              10793               07.5000000000E+011.6285714286E+01+
*       1.8500000000E+01               0
GRID*              10794               07.5000000000E+011.8321428571E+01+
*       1.8500000000E+01               0
GRID*              10795               07.5000000000E+012.0357142857E+01+
*       1.8500000000E+01               0
GRID*              10796               07.5000000000E+012.2392857143E+01+
*       1.8500000000E+01               0
GRID*              10797               07.5000000000E+012.4428571429E+01+
*       1.8500000000E+01               0
GRID*              10798               07.5000000000E+012.6464285714E+01+
*       1.8500000000E+01               0
GRID*              10799               07.5000000000E+012.7482142857E+01+
*       1.8500000000E+01               0
GRID*              10800               07.5000000000E+011.0178571429E+00+
*       1.8500000000E+01               0
GRID*              10801               07.5000000000E+013.0535714286E+00+
*       1.8500000000E+01               0
GRID*              10802               07.5000000000E+015.0892857143E+00+
*       1.8500000000E+01               0
GRID*              10803               07.5000000000E+017.1250000000E+00+
*       1.8500000000E+01               0
GRID*              10804               07.5000000000E+019.1607142857E+00+
*       1.8500000000E+01               0
GRID*              10805               07.5000000000E+011.1196428571E+01+
*       1.8500000000E+01               0
GRID*              10806               07.5000000000E+011.3232142857E+01+
*       1.8500000000E+01               0
GRID*              10807               07.5000000000E+011.5267857143E+01+
*       1.8500000000E+01               0
GRID*              10808               07.5000000000E+011.7303571429E+01+
*       1.8500000000E+01               0
GRID*              10809               07.5000000000E+011.9339285714E+01+
*       1.8500000000E+01               0
GRID*              10810               07.5000000000E+012.1375000000E+01+
*       1.8500000000E+01               0
GRID*              10811               07.5000000000E+012.3410714286E+01+
*       1.8500000000E+01               0
GRID*              10812               07.5000000000E+012.5446428571E+01+
*       1.8500000000E+01               0
GRID*              10813               0-7.500000000E+010.0000000000E+00+
*       1.8500000000E+01               0
GRID*              10814               0-7.500000000E+010.0000000000E+00+
*       -1.850000000E+01               0
GRID*              10815               0-7.500000000E+012.8500000000E+01+
*       -1.850000000E+01               0
GRID*              10816               0-7.500000000E+012.8500000000E+01+
*       1.8500000000E+01               0
GRID*              10817               07.5000000000E+010.0000000000E+00+
*       -1.850000000E+01               0
GRID*              10818               07.5000000000E+010.0000000000E+00+
*       1.8500000000E+01               0
GRID*              10819               07.5000000000E+012.8500000000E+01+
*       -1.850000000E+01               0
GRID*              10820               07.5000000000E+012.8500000000E+01+
*       1.8500000000E+01               0
$*
$* ELEMENT CARDS
$*
$*  Mesh Collector: Thin Shell(1)
$*  Mesh: 2d_mesh(1)
CQUAD8         1       1       1      19      20       2    1333    1334+
+           1335    1336
CQUAD8         2       1       2      20      21       3    1335    1337+
+           1338    1339
CQUAD8         3       1       3      21      22       4    1338    1340+
+           1341    1342
CQUAD8         4       1       4      22      23       5    1341    1343+
+           1344    1345
CQUAD8         5       1       5      23      24       6    1344    1346+
+           1347    1348
CQUAD8         6       1       6      24      25       7    1347    1349+
+           1350    1351
CQUAD8         7       1       7      25      26       8    1350    1352+
+           1353    1354
CQUAD8         8       1       8      26      27       9    1353    1355+
+           1356    1357
CQUAD8         9       1       9      27      28      10    1356    1358+
+           1359    1360
CQUAD8        10       1      10      28      29      11    1359    1361+
+           1362    1363
CQUAD8        11       1      11      29      30      12    1362    1364+
+           1365    1366
CQUAD8        12       1      12      30      31      13    1365    1367+
+           1368    1369
CQUAD8        13       1      13      31      32      14    1368    1370+
+           1371    1372
CQUAD8        14       1      14      32      33      15    1371    1373+
+           1374    1375
CQUAD8        15       1      15      33      34      16    1374    1376+
+           1377    1378
CQUAD8        16       1      16      34      35      17    1377    1379+
+           1380    1381
CQUAD8        17       1      17      35      36      18    1380    1382+
+           1383    1384
CQUAD8        18       1      19      37      38      20    1385    1386+
+           1387    1334
CQUAD8        19       1      20      38      39      21    1387    1388+
+           1389    1337
CQUAD8        20       1      21      39      40      22    1389    1390+
+           1391    1340
CQUAD8        21       1      22      40      41      23    1391    1392+
+           1393    1343
CQUAD8        22       1      23      41      42      24    1393    1394+
+           1395    1346
CQUAD8        23       1      24      42      43      25    1395    1396+
+           1397    1349
CQUAD8        24       1      25      43      44      26    1397    1398+
+           1399    1352
CQUAD8        25       1      26      44      45      27    1399    1400+
+           1401    1355
CQUAD8        26       1      27      45      46      28    1401    1402+
+           1403    1358
CQUAD8        27       1      28      46      47      29    1403    1404+
+           1405    1361
CQUAD8        28       1      29      47      48      30    1405    1406+
+           1407    1364
CQUAD8        29       1      30      48      49      31    1407    1408+
+           1409    1367
CQUAD8        30       1      31      49      50      32    1409    1410+
+           1411    1370
CQUAD8        31       1      32      50      51      33    1411    1412+
+           1413    1373
CQUAD8        32       1      33      51      52      34    1413    1414+
+           1415    1376
CQUAD8        33       1      34      52      53      35    1415    1416+
+           1417    1379
CQUAD8        34       1      35      53      54      36    1417    1418+
+           1419    1382
CQUAD8        35       1      37      55      56      38    1420    1421+
+           1422    1386
CQUAD8        36       1      38      56      57      39    1422    1423+
+           1424    1388
CQUAD8        37       1      39      57      58      40    1424    1425+
+           1426    1390
CQUAD8        38       1      40      58      59      41    1426    1427+
+           1428    1392
CQUAD8        39       1      41      59      60      42    1428    1429+
+           1430    1394
CQUAD8        40       1      42      60      61      43    1430    1431+
+           1432    1396
CQUAD8        41       1      43      61      62      44    1432    1433+
+           1434    1398
CQUAD8        42       1      44      62      63      45    1434    1435+
+           1436    1400
CQUAD8        43       1      45      63      64      46    1436    1437+
+           1438    1402
CQUAD8        44       1      46      64      65      47    1438    1439+
+           1440    1404
CQUAD8        45       1      47      65      66      48    1440    1441+
+           1442    1406
CQUAD8        46       1      48      66      67      49    1442    1443+
+           1444    1408
CQUAD8        47       1      49      67      68      50    1444    1445+
+           1446    1410
CQUAD8        48       1      50      68      69      51    1446    1447+
+           1448    1412
CQUAD8        49       1      51      69      70      52    1448    1449+
+           1450    1414
CQUAD8        50       1      52      70      71      53    1450    1451+
+           1452    1416
CQUAD8        51       1      53      71      72      54    1452    1453+
+           1454    1418
CQUAD8        52       1      55      73      74      56    1455    1456+
+           1457    1421
CQUAD8        53       1      56      74      75      57    1457    1458+
+           1459    1423
CQUAD8        54       1      57      75      76      58    1459    1460+
+           1461    1425
CQUAD8        55       1      58      76      77      59    1461    1462+
+           1463    1427
CQUAD8        56       1      59      77      78      60    1463    1464+
+           1465    1429
CQUAD8        57       1      60      78      79      61    1465    1466+
+           1467    1431
CQUAD8        58       1      61      79      80      62    1467    1468+
+           1469    1433
CQUAD8        59       1      62      80      81      63    1469    1470+
+           1471    1435
CQUAD8        60       1      63      81      82      64    1471    1472+
+           1473    1437
CQUAD8        61       1      64      82      83      65    1473    1474+
+           1475    1439
CQUAD8        62       1      65      83      84      66    1475    1476+
+           1477    1441
CQUAD8        63       1      66      84      85      67    1477    1478+
+           1479    1443
CQUAD8        64       1      67      85      86      68    1479    1480+
+           1481    1445
CQUAD8        65       1      68      86      87      69    1481    1482+
+           1483    1447
CQUAD8        66       1      69      87      88      70    1483    1484+
+           1485    1449
CQUAD8        67       1      70      88      89      71    1485    1486+
+           1487    1451
CQUAD8        68       1      71      89      90      72    1487    1488+
+           1489    1453
CQUAD8        69       1      73      91      92      74    1490    1491+
+           1492    1456
CQUAD8        70       1      74      92      93      75    1492    1493+
+           1494    1458
CQUAD8        71       1      75      93      94      76    1494    1495+
+           1496    1460
CQUAD8        72       1      76      94      95      77    1496    1497+
+           1498    1462
CQUAD8        73       1      77      95      96      78    1498    1499+
+           1500    1464
CQUAD8        74       1      78      96      97      79    1500    1501+
+           1502    1466
CQUAD8        75       1      79      97      98      80    1502    1503+
+           1504    1468
CQUAD8        76       1      80      98      99      81    1504    1505+
+           1506    1470
CQUAD8        77       1      81      99     100      82    1506    1507+
+           1508    1472
CQUAD8        78       1      82     100     101      83    1508    1509+
+           1510    1474
CQUAD8        79       1      83     101     102      84    1510    1511+
+           1512    1476
CQUAD8        80       1      84     102     103      85    1512    1513+
+           1514    1478
CQUAD8        81       1      85     103     104      86    1514    1515+
+           1516    1480
CQUAD8        82       1      86     104     105      87    1516    1517+
+           1518    1482
CQUAD8        83       1      87     105     106      88    1518    1519+
+           1520    1484
CQUAD8        84       1      88     106     107      89    1520    1521+
+           1522    1486
CQUAD8        85       1      89     107     108      90    1522    1523+
+           1524    1488
CQUAD8        86       1      91     109     110      92    1525    1526+
+           1527    1491
CQUAD8        87       1      92     110     111      93    1527    1528+
+           1529    1493
CQUAD8        88       1      93     111     112      94    1529    1530+
+           1531    1495
CQUAD8        89       1      94     112     113      95    1531    1532+
+           1533    1497
CQUAD8        90       1      95     113     114      96    1533    1534+
+           1535    1499
CQUAD8        91       1      96     114     115      97    1535    1536+
+           1537    1501
CQUAD8        92       1      97     115     116      98    1537    1538+
+           1539    1503
CQUAD8        93       1      98     116     117      99    1539    1540+
+           1541    1505
CQUAD8        94       1      99     117     118     100    1541    1542+
+           1543    1507
CQUAD8        95       1     100     118     119     101    1543    1544+
+           1545    1509
CQUAD8        96       1     101     119     120     102    1545    1546+
+           1547    1511
CQUAD8        97       1     102     120     121     103    1547    1548+
+           1549    1513
CQUAD8        98       1     103     121     122     104    1549    1550+
+           1551    1515
CQUAD8        99       1     104     122     123     105    1551    1552+
+           1553    1517
CQUAD8       100       1     105     123     124     106    1553    1554+
+           1555    1519
CQUAD8       101       1     106     124     125     107    1555    1556+
+           1557    1521
CQUAD8       102       1     107     125     126     108    1557    1558+
+           1559    1523
CQUAD8       103       1     109     127     128     110    1560    1561+
+           1562    1526
CQUAD8       104       1     110     128     129     111    1562    1563+
+           1564    1528
CQUAD8       105       1     111     129     130     112    1564    1565+
+           1566    1530
CQUAD8       106       1     112     130     131     113    1566    1567+
+           1568    1532
CQUAD8       107       1     113     131     132     114    1568    1569+
+           1570    1534
CQUAD8       108       1     114     132     133     115    1570    1571+
+           1572    1536
CQUAD8       109       1     115     133     134     116    1572    1573+
+           1574    1538
CQUAD8       110       1     116     134     135     117    1574    1575+
+           1576    1540
CQUAD8       111       1     117     135     136     118    1576    1577+
+           1578    1542
CQUAD8       112       1     118     136     137     119    1578    1579+
+           1580    1544
CQUAD8       113       1     119     137     138     120    1580    1581+
+           1582    1546
CQUAD8       114       1     120     138     139     121    1582    1583+
+           1584    1548
CQUAD8       115       1     121     139     140     122    1584    1585+
+           1586    1550
CQUAD8       116       1     122     140     141     123    1586    1587+
+           1588    1552
CQUAD8       117       1     123     141     142     124    1588    1589+
+           1590    1554
CQUAD8       118       1     124     142     143     125    1590    1591+
+           1592    1556
CQUAD8       119       1     125     143     144     126    1592    1593+
+           1594    1558
CQUAD8       120       1     127     145     146     128    1595    1596+
+           1597    1561
CQUAD8       121       1     128     146     147     129    1597    1598+
+           1599    1563
CQUAD8       122       1     129     147     148     130    1599    1600+
+           1601    1565
CQUAD8       123       1     130     148     149     131    1601    1602+
+           1603    1567
CQUAD8       124       1     131     149     150     132    1603    1604+
+           1605    1569
CQUAD8       125       1     132     150     151     133    1605    1606+
+           1607    1571
CQUAD8       126       1     133     151     152     134    1607    1608+
+           1609    1573
CQUAD8       127       1     134     152     153     135    1609    1610+
+           1611    1575
CQUAD8       128       1     135     153     154     136    1611    1612+
+           1613    1577
CQUAD8       129       1     136     154     155     137    1613    1614+
+           1615    1579
CQUAD8       130       1     137     155     156     138    1615    1616+
+           1617    1581
CQUAD8       131       1     138     156     157     139    1617    1618+
+           1619    1583
CQUAD8       132       1     139     157     158     140    1619    1620+
+           1621    1585
CQUAD8       133       1     140     158     159     141    1621    1622+
+           1623    1587
CQUAD8       134       1     141     159     160     142    1623    1624+
+           1625    1589
CQUAD8       135       1     142     160     161     143    1625    1626+
+           1627    1591
CQUAD8       136       1     143     161     162     144    1627    1628+
+           1629    1593
CQUAD8       137       1     145     163     164     146    1630    1631+
+           1632    1596
CQUAD8       138       1     146     164     165     147    1632    1633+
+           1634    1598
CQUAD8       139       1     147     165     166     148    1634    1635+
+           1636    1600
CQUAD8       140       1     148     166     167     149    1636    1637+
+           1638    1602
CQUAD8       141       1     149     167     168     150    1638    1639+
+           1640    1604
CQUAD8       142       1     150     168     169     151    1640    1641+
+           1642    1606
CQUAD8       143       1     151     169     170     152    1642    1643+
+           1644    1608
CQUAD8       144       1     152     170     171     153    1644    1645+
+           1646    1610
CQUAD8       145       1     153     171     172     154    1646    1647+
+           1648    1612
CQUAD8       146       1     154     172     173     155    1648    1649+
+           1650    1614
CQUAD8       147       1     155     173     174     156    1650    1651+
+           1652    1616
CQUAD8       148       1     156     174     175     157    1652    1653+
+           1654    1618
CQUAD8       149       1     157     175     176     158    1654    1655+
+           1656    1620
CQUAD8       150       1     158     176     177     159    1656    1657+
+           1658    1622
CQUAD8       151       1     159     177     178     160    1658    1659+
+           1660    1624
CQUAD8       152       1     160     178     179     161    1660    1661+
+           1662    1626
CQUAD8       153       1     161     179     180     162    1662    1663+
+           1664    1628
CQUAD8       154       1     163     181     182     164    1665    1666+
+           1667    1631
CQUAD8       155       1     164     182     183     165    1667    1668+
+           1669    1633
CQUAD8       156       1     165     183     184     166    1669    1670+
+           1671    1635
CQUAD8       157       1     166     184     185     167    1671    1672+
+           1673    1637
CQUAD8       158       1     167     185     186     168    1673    1674+
+           1675    1639
CQUAD8       159       1     168     186     187     169    1675    1676+
+           1677    1641
CQUAD8       160       1     169     187     188     170    1677    1678+
+           1679    1643
CQUAD8       161       1     170     188     189     171    1679    1680+
+           1681    1645
CQUAD8       162       1     171     189     190     172    1681    1682+
+           1683    1647
CQUAD8       163       1     172     190     191     173    1683    1684+
+           1685    1649
CQUAD8       164       1     173     191     192     174    1685    1686+
+           1687    1651
CQUAD8       165       1     174     192     193     175    1687    1688+
+           1689    1653
CQUAD8       166       1     175     193     194     176    1689    1690+
+           1691    1655
CQUAD8       167       1     176     194     195     177    1691    1692+
+           1693    1657
CQUAD8       168       1     177     195     196     178    1693    1694+
+           1695    1659
CQUAD8       169       1     178     196     197     179    1695    1696+
+           1697    1661
CQUAD8       170       1     179     197     198     180    1697    1698+
+           1699    1663
CQUAD8       171       1     181     199     200     182    1700    1701+
+           1702    1666
CQUAD8       172       1     182     200     201     183    1702    1703+
+           1704    1668
CQUAD8       173       1     183     201     202     184    1704    1705+
+           1706    1670
CQUAD8       174       1     184     202     203     185    1706    1707+
+           1708    1672
CQUAD8       175       1     185     203     204     186    1708    1709+
+           1710    1674
CQUAD8       176       1     186     204     205     187    1710    1711+
+           1712    1676
CQUAD8       177       1     187     205     206     188    1712    1713+
+           1714    1678
CQUAD8       178       1     188     206     207     189    1714    1715+
+           1716    1680
CQUAD8       179       1     189     207     208     190    1716    1717+
+           1718    1682
CQUAD8       180       1     190     208     209     191    1718    1719+
+           1720    1684
CQUAD8       181       1     191     209     210     192    1720    1721+
+           1722    1686
CQUAD8       182       1     192     210     211     193    1722    1723+
+           1724    1688
CQUAD8       183       1     193     211     212     194    1724    1725+
+           1726    1690
CQUAD8       184       1     194     212     213     195    1726    1727+
+           1728    1692
CQUAD8       185       1     195     213     214     196    1728    1729+
+           1730    1694
CQUAD8       186       1     196     214     215     197    1730    1731+
+           1732    1696
CQUAD8       187       1     197     215     216     198    1732    1733+
+           1734    1698
CQUAD8       188       1     199     217     218     200    1735    1736+
+           1737    1701
CQUAD8       189       1     200     218     219     201    1737    1738+
+           1739    1703
CQUAD8       190       1     201     219     220     202    1739    1740+
+           1741    1705
CQUAD8       191       1     202     220     221     203    1741    1742+
+           1743    1707
CQUAD8       192       1     203     221     222     204    1743    1744+
+           1745    1709
CQUAD8       193       1     204     222     223     205    1745    1746+
+           1747    1711
CQUAD8       194       1     205     223     224     206    1747    1748+
+           1749    1713
CQUAD8       195       1     206     224     225     207    1749    1750+
+           1751    1715
CQUAD8       196       1     207     225     226     208    1751    1752+
+           1753    1717
CQUAD8       197       1     208     226     227     209    1753    1754+
+           1755    1719
CQUAD8       198       1     209     227     228     210    1755    1756+
+           1757    1721
CQUAD8       199       1     210     228     229     211    1757    1758+
+           1759    1723
CQUAD8       200       1     211     229     230     212    1759    1760+
+           1761    1725
CQUAD8       201       1     212     230     231     213    1761    1762+
+           1763    1727
CQUAD8       202       1     213     231     232     214    1763    1764+
+           1765    1729
CQUAD8       203       1     214     232     233     215    1765    1766+
+           1767    1731
CQUAD8       204       1     215     233     234     216    1767    1768+
+           1769    1733
CQUAD8       205       1     217     235     236     218    1770    1771+
+           1772    1736
CQUAD8       206       1     218     236     237     219    1772    1773+
+           1774    1738
CQUAD8       207       1     219     237     238     220    1774    1775+
+           1776    1740
CQUAD8       208       1     220     238     239     221    1776    1777+
+           1778    1742
CQUAD8       209       1     221     239     240     222    1778    1779+
+           1780    1744
CQUAD8       210       1     222     240     241     223    1780    1781+
+           1782    1746
CQUAD8       211       1     223     241     242     224    1782    1783+
+           1784    1748
CQUAD8       212       1     224     242     243     225    1784    1785+
+           1786    1750
CQUAD8       213       1     225     243     244     226    1786    1787+
+           1788    1752
CQUAD8       214       1     226     244     245     227    1788    1789+
+           1790    1754
CQUAD8       215       1     227     245     246     228    1790    1791+
+           1792    1756
CQUAD8       216       1     228     246     247     229    1792    1793+
+           1794    1758
CQUAD8       217       1     229     247     248     230    1794    1795+
+           1796    1760
CQUAD8       218       1     230     248     249     231    1796    1797+
+           1798    1762
CQUAD8       219       1     231     249     250     232    1798    1799+
+           1800    1764
CQUAD8       220       1     232     250     251     233    1800    1801+
+           1802    1766
CQUAD8       221       1     233     251     252     234    1802    1803+
+           1804    1768
CQUAD8       222       1     235     253     254     236    1805    1806+
+           1807    1771
CQUAD8       223       1     236     254     255     237    1807    1808+
+           1809    1773
CQUAD8       224       1     237     255     256     238    1809    1810+
+           1811    1775
CQUAD8       225       1     238     256     257     239    1811    1812+
+           1813    1777
CQUAD8       226       1     239     257     258     240    1813    1814+
+           1815    1779
CQUAD8       227       1     240     258     259     241    1815    1816+
+           1817    1781
CQUAD8       228       1     241     259     260     242    1817    1818+
+           1819    1783
CQUAD8       229       1     242     260     261     243    1819    1820+
+           1821    1785
CQUAD8       230       1     243     261     262     244    1821    1822+
+           1823    1787
CQUAD8       231       1     244     262     263     245    1823    1824+
+           1825    1789
CQUAD8       232       1     245     263     264     246    1825    1826+
+           1827    1791
CQUAD8       233       1     246     264     265     247    1827    1828+
+           1829    1793
CQUAD8       234       1     247     265     266     248    1829    1830+
+           1831    1795
CQUAD8       235       1     248     266     267     249    1831    1832+
+           1833    1797
CQUAD8       236       1     249     267     268     250    1833    1834+
+           1835    1799
CQUAD8       237       1     250     268     269     251    1835    1836+
+           1837    1801
CQUAD8       238       1     251     269     270     252    1837    1838+
+           1839    1803
CQUAD8       239       1     253     271     272     254    1840    1841+
+           1842    1806
CQUAD8       240       1     254     272     273     255    1842    1843+
+           1844    1808
CQUAD8       241       1     255     273     274     256    1844    1845+
+           1846    1810
CQUAD8       242       1     256     274     275     257    1846    1847+
+           1848    1812
CQUAD8       243       1     257     275     276     258    1848    1849+
+           1850    1814
CQUAD8       244       1     258     276     277     259    1850    1851+
+           1852    1816
CQUAD8       245       1     259     277     278     260    1852    1853+
+           1854    1818
CQUAD8       246       1     260     278     279     261    1854    1855+
+           1856    1820
CQUAD8       247       1     261     279     280     262    1856    1857+
+           1858    1822
CQUAD8       248       1     262     280     281     263    1858    1859+
+           1860    1824
CQUAD8       249       1     263     281     282     264    1860    1861+
+           1862    1826
CQUAD8       250       1     264     282     283     265    1862    1863+
+           1864    1828
CQUAD8       251       1     265     283     284     266    1864    1865+
+           1866    1830
CQUAD8       252       1     266     284     285     267    1866    1867+
+           1868    1832
CQUAD8       253       1     267     285     286     268    1868    1869+
+           1870    1834
CQUAD8       254       1     268     286     287     269    1870    1871+
+           1872    1836
CQUAD8       255       1     269     287     288     270    1872    1873+
+           1874    1838
CQUAD8       256       1     271     289     290     272    1875    1876+
+           1877    1841
CQUAD8       257       1     272     290     291     273    1877    1878+
+           1879    1843
CQUAD8       258       1     273     291     292     274    1879    1880+
+           1881    1845
CQUAD8       259       1     274     292     293     275    1881    1882+
+           1883    1847
CQUAD8       260       1     275     293     294     276    1883    1884+
+           1885    1849
CQUAD8       261       1     276     294     295     277    1885    1886+
+           1887    1851
CQUAD8       262       1     277     295     296     278    1887    1888+
+           1889    1853
CQUAD8       263       1     278     296     297     279    1889    1890+
+           1891    1855
CQUAD8       264       1     279     297     298     280    1891    1892+
+           1893    1857
CQUAD8       265       1     280     298     299     281    1893    1894+
+           1895    1859
CQUAD8       266       1     281     299     300     282    1895    1896+
+           1897    1861
CQUAD8       267       1     282     300     301     283    1897    1898+
+           1899    1863
CQUAD8       268       1     283     301     302     284    1899    1900+
+           1901    1865
CQUAD8       269       1     284     302     303     285    1901    1902+
+           1903    1867
CQUAD8       270       1     285     303     304     286    1903    1904+
+           1905    1869
CQUAD8       271       1     286     304     305     287    1905    1906+
+           1907    1871
CQUAD8       272       1     287     305     306     288    1907    1908+
+           1909    1873
CQUAD8       273       1     289     307     308     290    1910    1911+
+           1912    1876
CQUAD8       274       1     290     308     309     291    1912    1913+
+           1914    1878
CQUAD8       275       1     291     309     310     292    1914    1915+
+           1916    1880
CQUAD8       276       1     292     310     311     293    1916    1917+
+           1918    1882
CQUAD8       277       1     293     311     312     294    1918    1919+
+           1920    1884
CQUAD8       278       1     294     312     313     295    1920    1921+
+           1922    1886
CQUAD8       279       1     295     313     314     296    1922    1923+
+           1924    1888
CQUAD8       280       1     296     314     315     297    1924    1925+
+           1926    1890
CQUAD8       281       1     297     315     316     298    1926    1927+
+           1928    1892
CQUAD8       282       1     298     316     317     299    1928    1929+
+           1930    1894
CQUAD8       283       1     299     317     318     300    1930    1931+
+           1932    1896
CQUAD8       284       1     300     318     319     301    1932    1933+
+           1934    1898
CQUAD8       285       1     301     319     320     302    1934    1935+
+           1936    1900
CQUAD8       286       1     302     320     321     303    1936    1937+
+           1938    1902
CQUAD8       287       1     303     321     322     304    1938    1939+
+           1940    1904
CQUAD8       288       1     304     322     323     305    1940    1941+
+           1942    1906
CQUAD8       289       1     305     323     324     306    1942    1943+
+           1944    1908
CQUAD8       290       1     307     325     326     308    1945    1946+
+           1947    1911
CQUAD8       291       1     308     326     327     309    1947    1948+
+           1949    1913
CQUAD8       292       1     309     327     328     310    1949    1950+
+           1951    1915
CQUAD8       293       1     310     328     329     311    1951    1952+
+           1953    1917
CQUAD8       294       1     311     329     330     312    1953    1954+
+           1955    1919
CQUAD8       295       1     312     330     331     313    1955    1956+
+           1957    1921
CQUAD8       296       1     313     331     332     314    1957    1958+
+           1959    1923
CQUAD8       297       1     314     332     333     315    1959    1960+
+           1961    1925
CQUAD8       298       1     315     333     334     316    1961    1962+
+           1963    1927
CQUAD8       299       1     316     334     335     317    1963    1964+
+           1965    1929
CQUAD8       300       1     317     335     336     318    1965    1966+
+           1967    1931
CQUAD8       301       1     318     336     337     319    1967    1968+
+           1969    1933
CQUAD8       302       1     319     337     338     320    1969    1970+
+           1971    1935
CQUAD8       303       1     320     338     339     321    1971    1972+
+           1973    1937
CQUAD8       304       1     321     339     340     322    1973    1974+
+           1975    1939
CQUAD8       305       1     322     340     341     323    1975    1976+
+           1977    1941
CQUAD8       306       1     323     341     342     324    1977    1978+
+           1979    1943
CQUAD8       307       1     325     343     344     326    1980    1981+
+           1982    1946
CQUAD8       308       1     326     344     345     327    1982    1983+
+           1984    1948
CQUAD8       309       1     327     345     346     328    1984    1985+
+           1986    1950
CQUAD8       310       1     328     346     347     329    1986    1987+
+           1988    1952
CQUAD8       311       1     329     347     348     330    1988    1989+
+           1990    1954
CQUAD8       312       1     330     348     349     331    1990    1991+
+           1992    1956
CQUAD8       313       1     331     349     350     332    1992    1993+
+           1994    1958
CQUAD8       314       1     332     350     351     333    1994    1995+
+           1996    1960
CQUAD8       315       1     333     351     352     334    1996    1997+
+           1998    1962
CQUAD8       316       1     334     352     353     335    1998    1999+
+           2000    1964
CQUAD8       317       1     335     353     354     336    2000    2001+
+           2002    1966
CQUAD8       318       1     336     354     355     337    2002    2003+
+           2004    1968
CQUAD8       319       1     337     355     356     338    2004    2005+
+           2006    1970
CQUAD8       320       1     338     356     357     339    2006    2007+
+           2008    1972
CQUAD8       321       1     339     357     358     340    2008    2009+
+           2010    1974
CQUAD8       322       1     340     358     359     341    2010    2011+
+           2012    1976
CQUAD8       323       1     341     359     360     342    2012    2013+
+           2014    1978
CQUAD8       324       1     343     361     362     344    2015    2016+
+           2017    1981
CQUAD8       325       1     344     362     363     345    2017    2018+
+           2019    1983
CQUAD8       326       1     345     363     364     346    2019    2020+
+           2021    1985
CQUAD8       327       1     346     364     365     347    2021    2022+
+           2023    1987
CQUAD8       328       1     347     365     366     348    2023    2024+
+           2025    1989
CQUAD8       329       1     348     366     367     349    2025    2026+
+           2027    1991
CQUAD8       330       1     349     367     368     350    2027    2028+
+           2029    1993
CQUAD8       331       1     350     368     369     351    2029    2030+
+           2031    1995
CQUAD8       332       1     351     369     370     352    2031    2032+
+           2033    1997
CQUAD8       333       1     352     370     371     353    2033    2034+
+           2035    1999
CQUAD8       334       1     353     371     372     354    2035    2036+
+           2037    2001
CQUAD8       335       1     354     372     373     355    2037    2038+
+           2039    2003
CQUAD8       336       1     355     373     374     356    2039    2040+
+           2041    2005
CQUAD8       337       1     356     374     375     357    2041    2042+
+           2043    2007
CQUAD8       338       1     357     375     376     358    2043    2044+
+           2045    2009
CQUAD8       339       1     358     376     377     359    2045    2046+
+           2047    2011
CQUAD8       340       1     359     377     378     360    2047    2048+
+           2049    2013
CQUAD8       341       1     361     379     380     362    2050    2051+
+           2052    2016
CQUAD8       342       1     362     380     381     363    2052    2053+
+           2054    2018
CQUAD8       343       1     363     381     382     364    2054    2055+
+           2056    2020
CQUAD8       344       1     364     382     383     365    2056    2057+
+           2058    2022
CQUAD8       345       1     365     383     384     366    2058    2059+
+           2060    2024
CQUAD8       346       1     366     384     385     367    2060    2061+
+           2062    2026
CQUAD8       347       1     367     385     386     368    2062    2063+
+           2064    2028
CQUAD8       348       1     368     386     387     369    2064    2065+
+           2066    2030
CQUAD8       349       1     369     387     388     370    2066    2067+
+           2068    2032
CQUAD8       350       1     370     388     389     371    2068    2069+
+           2070    2034
CQUAD8       351       1     371     389     390     372    2070    2071+
+           2072    2036
CQUAD8       352       1     372     390     391     373    2072    2073+
+           2074    2038
CQUAD8       353       1     373     391     392     374    2074    2075+
+           2076    2040
CQUAD8       354       1     374     392     393     375    2076    2077+
+           2078    2042
CQUAD8       355       1     375     393     394     376    2078    2079+
+           2080    2044
CQUAD8       356       1     376     394     395     377    2080    2081+
+           2082    2046
CQUAD8       357       1     377     395     396     378    2082    2083+
+           2084    2048
CQUAD8       358       1     379     397     398     380    2085    2086+
+           2087    2051
CQUAD8       359       1     380     398     399     381    2087    2088+
+           2089    2053
CQUAD8       360       1     381     399     400     382    2089    2090+
+           2091    2055
CQUAD8       361       1     382     400     401     383    2091    2092+
+           2093    2057
CQUAD8       362       1     383     401     402     384    2093    2094+
+           2095    2059
CQUAD8       363       1     384     402     403     385    2095    2096+
+           2097    2061
CQUAD8       364       1     385     403     404     386    2097    2098+
+           2099    2063
CQUAD8       365       1     386     404     405     387    2099    2100+
+           2101    2065
CQUAD8       366       1     387     405     406     388    2101    2102+
+           2103    2067
CQUAD8       367       1     388     406     407     389    2103    2104+
+           2105    2069
CQUAD8       368       1     389     407     408     390    2105    2106+
+           2107    2071
CQUAD8       369       1     390     408     409     391    2107    2108+
+           2109    2073
CQUAD8       370       1     391     409     410     392    2109    2110+
+           2111    2075
CQUAD8       371       1     392     410     411     393    2111    2112+
+           2113    2077
CQUAD8       372       1     393     411     412     394    2113    2114+
+           2115    2079
CQUAD8       373       1     394     412     413     395    2115    2116+
+           2117    2081
CQUAD8       374       1     395     413     414     396    2117    2118+
+           2119    2083
CQUAD8       375       1     397     415     416     398    2120    2121+
+           2122    2086
CQUAD8       376       1     398     416     417     399    2122    2123+
+           2124    2088
CQUAD8       377       1     399     417     418     400    2124    2125+
+           2126    2090
CQUAD8       378       1     400     418     419     401    2126    2127+
+           2128    2092
CQUAD8       379       1     401     419     420     402    2128    2129+
+           2130    2094
CQUAD8       380       1     402     420     421     403    2130    2131+
+           2132    2096
CQUAD8       381       1     403     421     422     404    2132    2133+
+           2134    2098
CQUAD8       382       1     404     422     423     405    2134    2135+
+           2136    2100
CQUAD8       383       1     405     423     424     406    2136    2137+
+           2138    2102
CQUAD8       384       1     406     424     425     407    2138    2139+
+           2140    2104
CQUAD8       385       1     407     425     426     408    2140    2141+
+           2142    2106
CQUAD8       386       1     408     426     427     409    2142    2143+
+           2144    2108
CQUAD8       387       1     409     427     428     410    2144    2145+
+           2146    2110
CQUAD8       388       1     410     428     429     411    2146    2147+
+           2148    2112
CQUAD8       389       1     411     429     430     412    2148    2149+
+           2150    2114
CQUAD8       390       1     412     430     431     413    2150    2151+
+           2152    2116
CQUAD8       391       1     413     431     432     414    2152    2153+
+           2154    2118
CQUAD8       392       1     415     433     434     416    2155    2156+
+           2157    2121
CQUAD8       393       1     416     434     435     417    2157    2158+
+           2159    2123
CQUAD8       394       1     417     435     436     418    2159    2160+
+           2161    2125
CQUAD8       395       1     418     436     437     419    2161    2162+
+           2163    2127
CQUAD8       396       1     419     437     438     420    2163    2164+
+           2165    2129
CQUAD8       397       1     420     438     439     421    2165    2166+
+           2167    2131
CQUAD8       398       1     421     439     440     422    2167    2168+
+           2169    2133
CQUAD8       399       1     422     440     441     423    2169    2170+
+           2171    2135
CQUAD8       400       1     423     441     442     424    2171    2172+
+           2173    2137
CQUAD8       401       1     424     442     443     425    2173    2174+
+           2175    2139
CQUAD8       402       1     425     443     444     426    2175    2176+
+           2177    2141
CQUAD8       403       1     426     444     445     427    2177    2178+
+           2179    2143
CQUAD8       404       1     427     445     446     428    2179    2180+
+           2181    2145
CQUAD8       405       1     428     446     447     429    2181    2182+
+           2183    2147
CQUAD8       406       1     429     447     448     430    2183    2184+
+           2185    2149
CQUAD8       407       1     430     448     449     431    2185    2186+
+           2187    2151
CQUAD8       408       1     431     449     450     432    2187    2188+
+           2189    2153
CQUAD8       409       1     433     451     452     434    2190    2191+
+           2192    2156
CQUAD8       410       1     434     452     453     435    2192    2193+
+           2194    2158
CQUAD8       411       1     435     453     454     436    2194    2195+
+           2196    2160
CQUAD8       412       1     436     454     455     437    2196    2197+
+           2198    2162
CQUAD8       413       1     437     455     456     438    2198    2199+
+           2200    2164
CQUAD8       414       1     438     456     457     439    2200    2201+
+           2202    2166
CQUAD8       415       1     439     457     458     440    2202    2203+
+           2204    2168
CQUAD8       416       1     440     458     459     441    2204    2205+
+           2206    2170
CQUAD8       417       1     441     459     460     442    2206    2207+
+           2208    2172
CQUAD8       418       1     442     460     461     443    2208    2209+
+           2210    2174
CQUAD8       419       1     443     461     462     444    2210    2211+
+           2212    2176
CQUAD8       420       1     444     462     463     445    2212    2213+
+           2214    2178
CQUAD8       421       1     445     463     464     446    2214    2215+
+           2216    2180
CQUAD8       422       1     446     464     465     447    2216    2217+
+           2218    2182
CQUAD8       423       1     447     465     466     448    2218    2219+
+           2220    2184
CQUAD8       424       1     448     466     467     449    2220    2221+
+           2222    2186
CQUAD8       425       1     449     467     468     450    2222    2223+
+           2224    2188
CQUAD8       426       1     451     469     470     452    2225    2226+
+           2227    2191
CQUAD8       427       1     452     470     471     453    2227    2228+
+           2229    2193
CQUAD8       428       1     453     471     472     454    2229    2230+
+           2231    2195
CQUAD8       429       1     454     472     473     455    2231    2232+
+           2233    2197
CQUAD8       430       1     455     473     474     456    2233    2234+
+           2235    2199
CQUAD8       431       1     456     474     475     457    2235    2236+
+           2237    2201
CQUAD8       432       1     457     475     476     458    2237    2238+
+           2239    2203
CQUAD8       433       1     458     476     477     459    2239    2240+
+           2241    2205
CQUAD8       434       1     459     477     478     460    2241    2242+
+           2243    2207
CQUAD8       435       1     460     478     479     461    2243    2244+
+           2245    2209
CQUAD8       436       1     461     479     480     462    2245    2246+
+           2247    2211
CQUAD8       437       1     462     480     481     463    2247    2248+
+           2249    2213
CQUAD8       438       1     463     481     482     464    2249    2250+
+           2251    2215
CQUAD8       439       1     464     482     483     465    2251    2252+
+           2253    2217
CQUAD8       440       1     465     483     484     466    2253    2254+
+           2255    2219
CQUAD8       441       1     466     484     485     467    2255    2256+
+           2257    2221
CQUAD8       442       1     467     485     486     468    2257    2258+
+           2259    2223
CQUAD8       443       1     469     487     488     470    2260    2261+
+           2262    2226
CQUAD8       444       1     470     488     489     471    2262    2263+
+           2264    2228
CQUAD8       445       1     471     489     490     472    2264    2265+
+           2266    2230
CQUAD8       446       1     472     490     491     473    2266    2267+
+           2268    2232
CQUAD8       447       1     473     491     492     474    2268    2269+
+           2270    2234
CQUAD8       448       1     474     492     493     475    2270    2271+
+           2272    2236
CQUAD8       449       1     475     493     494     476    2272    2273+
+           2274    2238
CQUAD8       450       1     476     494     495     477    2274    2275+
+           2276    2240
CQUAD8       451       1     477     495     496     478    2276    2277+
+           2278    2242
CQUAD8       452       1     478     496     497     479    2278    2279+
+           2280    2244
CQUAD8       453       1     479     497     498     480    2280    2281+
+           2282    2246
CQUAD8       454       1     480     498     499     481    2282    2283+
+           2284    2248
CQUAD8       455       1     481     499     500     482    2284    2285+
+           2286    2250
CQUAD8       456       1     482     500     501     483    2286    2287+
+           2288    2252
CQUAD8       457       1     483     501     502     484    2288    2289+
+           2290    2254
CQUAD8       458       1     484     502     503     485    2290    2291+
+           2292    2256
CQUAD8       459       1     485     503     504     486    2292    2293+
+           2294    2258
CQUAD8       460       1     487     505     506     488    2295    2296+
+           2297    2261
CQUAD8       461       1     488     506     507     489    2297    2298+
+           2299    2263
CQUAD8       462       1     489     507     508     490    2299    2300+
+           2301    2265
CQUAD8       463       1     490     508     509     491    2301    2302+
+           2303    2267
CQUAD8       464       1     491     509     510     492    2303    2304+
+           2305    2269
CQUAD8       465       1     492     510     511     493    2305    2306+
+           2307    2271
CQUAD8       466       1     493     511     512     494    2307    2308+
+           2309    2273
CQUAD8       467       1     494     512     513     495    2309    2310+
+           2311    2275
CQUAD8       468       1     495     513     514     496    2311    2312+
+           2313    2277
CQUAD8       469       1     496     514     515     497    2313    2314+
+           2315    2279
CQUAD8       470       1     497     515     516     498    2315    2316+
+           2317    2281
CQUAD8       471       1     498     516     517     499    2317    2318+
+           2319    2283
CQUAD8       472       1     499     517     518     500    2319    2320+
+           2321    2285
CQUAD8       473       1     500     518     519     501    2321    2322+
+           2323    2287
CQUAD8       474       1     501     519     520     502    2323    2324+
+           2325    2289
CQUAD8       475       1     502     520     521     503    2325    2326+
+           2327    2291
CQUAD8       476       1     503     521     522     504    2327    2328+
+           2329    2293
CQUAD8       477       1     505     523     524     506    2330    2331+
+           2332    2296
CQUAD8       478       1     506     524     525     507    2332    2333+
+           2334    2298
CQUAD8       479       1     507     525     526     508    2334    2335+
+           2336    2300
CQUAD8       480       1     508     526     527     509    2336    2337+
+           2338    2302
CQUAD8       481       1     509     527     528     510    2338    2339+
+           2340    2304
CQUAD8       482       1     510     528     529     511    2340    2341+
+           2342    2306
CQUAD8       483       1     511     529     530     512    2342    2343+
+           2344    2308
CQUAD8       484       1     512     530     531     513    2344    2345+
+           2346    2310
CQUAD8       485       1     513     531     532     514    2346    2347+
+           2348    2312
CQUAD8       486       1     514     532     533     515    2348    2349+
+           2350    2314
CQUAD8       487       1     515     533     534     516    2350    2351+
+           2352    2316
CQUAD8       488       1     516     534     535     517    2352    2353+
+           2354    2318
CQUAD8       489       1     517     535     536     518    2354    2355+
+           2356    2320
CQUAD8       490       1     518     536     537     519    2356    2357+
+           2358    2322
CQUAD8       491       1     519     537     538     520    2358    2359+
+           2360    2324
CQUAD8       492       1     520     538     539     521    2360    2361+
+           2362    2326
CQUAD8       493       1     521     539     540     522    2362    2363+
+           2364    2328
CQUAD8       494       1     523     541     542     524    2365    2366+
+           2367    2331
CQUAD8       495       1     524     542     543     525    2367    2368+
+           2369    2333
CQUAD8       496       1     525     543     544     526    2369    2370+
+           2371    2335
CQUAD8       497       1     526     544     545     527    2371    2372+
+           2373    2337
CQUAD8       498       1     527     545     546     528    2373    2374+
+           2375    2339
CQUAD8       499       1     528     546     547     529    2375    2376+
+           2377    2341
CQUAD8       500       1     529     547     548     530    2377    2378+
+           2379    2343
CQUAD8       501       1     530     548     549     531    2379    2380+
+           2381    2345
CQUAD8       502       1     531     549     550     532    2381    2382+
+           2383    2347
CQUAD8       503       1     532     550     551     533    2383    2384+
+           2385    2349
CQUAD8       504       1     533     551     552     534    2385    2386+
+           2387    2351
CQUAD8       505       1     534     552     553     535    2387    2388+
+           2389    2353
CQUAD8       506       1     535     553     554     536    2389    2390+
+           2391    2355
CQUAD8       507       1     536     554     555     537    2391    2392+
+           2393    2357
CQUAD8       508       1     537     555     556     538    2393    2394+
+           2395    2359
CQUAD8       509       1     538     556     557     539    2395    2396+
+           2397    2361
CQUAD8       510       1     539     557     558     540    2397    2398+
+           2399    2363
CQUAD8       511       1     541     559     560     542    2400    2401+
+           2402    2366
CQUAD8       512       1     542     560     561     543    2402    2403+
+           2404    2368
CQUAD8       513       1     543     561     562     544    2404    2405+
+           2406    2370
CQUAD8       514       1     544     562     563     545    2406    2407+
+           2408    2372
CQUAD8       515       1     545     563     564     546    2408    2409+
+           2410    2374
CQUAD8       516       1     546     564     565     547    2410    2411+
+           2412    2376
CQUAD8       517       1     547     565     566     548    2412    2413+
+           2414    2378
CQUAD8       518       1     548     566     567     549    2414    2415+
+           2416    2380
CQUAD8       519       1     549     567     568     550    2416    2417+
+           2418    2382
CQUAD8       520       1     550     568     569     551    2418    2419+
+           2420    2384
CQUAD8       521       1     551     569     570     552    2420    2421+
+           2422    2386
CQUAD8       522       1     552     570     571     553    2422    2423+
+           2424    2388
CQUAD8       523       1     553     571     572     554    2424    2425+
+           2426    2390
CQUAD8       524       1     554     572     573     555    2426    2427+
+           2428    2392
CQUAD8       525       1     555     573     574     556    2428    2429+
+           2430    2394
CQUAD8       526       1     556     574     575     557    2430    2431+
+           2432    2396
CQUAD8       527       1     557     575     576     558    2432    2433+
+           2434    2398
CQUAD8       528       1     559     577     578     560    2435    2436+
+           2437    2401
CQUAD8       529       1     560     578     579     561    2437    2438+
+           2439    2403
CQUAD8       530       1     561     579     580     562    2439    2440+
+           2441    2405
CQUAD8       531       1     562     580     581     563    2441    2442+
+           2443    2407
CQUAD8       532       1     563     581     582     564    2443    2444+
+           2445    2409
CQUAD8       533       1     564     582     583     565    2445    2446+
+           2447    2411
CQUAD8       534       1     565     583     584     566    2447    2448+
+           2449    2413
CQUAD8       535       1     566     584     585     567    2449    2450+
+           2451    2415
CQUAD8       536       1     567     585     586     568    2451    2452+
+           2453    2417
CQUAD8       537       1     568     586     587     569    2453    2454+
+           2455    2419
CQUAD8       538       1     569     587     588     570    2455    2456+
+           2457    2421
CQUAD8       539       1     570     588     589     571    2457    2458+
+           2459    2423
CQUAD8       540       1     571     589     590     572    2459    2460+
+           2461    2425
CQUAD8       541       1     572     590     591     573    2461    2462+
+           2463    2427
CQUAD8       542       1     573     591     592     574    2463    2464+
+           2465    2429
CQUAD8       543       1     574     592     593     575    2465    2466+
+           2467    2431
CQUAD8       544       1     575     593     594     576    2467    2468+
+           2469    2433
CQUAD8       545       1     577     595     596     578    2470    2471+
+           2472    2436
CQUAD8       546       1     578     596     597     579    2472    2473+
+           2474    2438
CQUAD8       547       1     579     597     598     580    2474    2475+
+           2476    2440
CQUAD8       548       1     580     598     599     581    2476    2477+
+           2478    2442
CQUAD8       549       1     581     599     600     582    2478    2479+
+           2480    2444
CQUAD8       550       1     582     600     601     583    2480    2481+
+           2482    2446
CQUAD8       551       1     583     601     602     584    2482    2483+
+           2484    2448
CQUAD8       552       1     584     602     603     585    2484    2485+
+           2486    2450
CQUAD8       553       1     585     603     604     586    2486    2487+
+           2488    2452
CQUAD8       554       1     586     604     605     587    2488    2489+
+           2490    2454
CQUAD8       555       1     587     605     606     588    2490    2491+
+           2492    2456
CQUAD8       556       1     588     606     607     589    2492    2493+
+           2494    2458
CQUAD8       557       1     589     607     608     590    2494    2495+
+           2496    2460
CQUAD8       558       1     590     608     609     591    2496    2497+
+           2498    2462
CQUAD8       559       1     591     609     610     592    2498    2499+
+           2500    2464
CQUAD8       560       1     592     610     611     593    2500    2501+
+           2502    2466
CQUAD8       561       1     593     611     612     594    2502    2503+
+           2504    2468
CQUAD8       562       1     595     613     614     596    2505    2506+
+           2507    2471
CQUAD8       563       1     596     614     615     597    2507    2508+
+           2509    2473
CQUAD8       564       1     597     615     616     598    2509    2510+
+           2511    2475
CQUAD8       565       1     598     616     617     599    2511    2512+
+           2513    2477
CQUAD8       566       1     599     617     618     600    2513    2514+
+           2515    2479
CQUAD8       567       1     600     618     619     601    2515    2516+
+           2517    2481
CQUAD8       568       1     601     619     620     602    2517    2518+
+           2519    2483
CQUAD8       569       1     602     620     621     603    2519    2520+
+           2521    2485
CQUAD8       570       1     603     621     622     604    2521    2522+
+           2523    2487
CQUAD8       571       1     604     622     623     605    2523    2524+
+           2525    2489
CQUAD8       572       1     605     623     624     606    2525    2526+
+           2527    2491
CQUAD8       573       1     606     624     625     607    2527    2528+
+           2529    2493
CQUAD8       574       1     607     625     626     608    2529    2530+
+           2531    2495
CQUAD8       575       1     608     626     627     609    2531    2532+
+           2533    2497
CQUAD8       576       1     609     627     628     610    2533    2534+
+           2535    2499
CQUAD8       577       1     610     628     629     611    2535    2536+
+           2537    2501
CQUAD8       578       1     611     629     630     612    2537    2538+
+           2539    2503
CQUAD8       579       1     613     631     632     614    2540    2541+
+           2542    2506
CQUAD8       580       1     614     632     633     615    2542    2543+
+           2544    2508
CQUAD8       581       1     615     633     634     616    2544    2545+
+           2546    2510
CQUAD8       582       1     616     634     635     617    2546    2547+
+           2548    2512
CQUAD8       583       1     617     635     636     618    2548    2549+
+           2550    2514
CQUAD8       584       1     618     636     637     619    2550    2551+
+           2552    2516
CQUAD8       585       1     619     637     638     620    2552    2553+
+           2554    2518
CQUAD8       586       1     620     638     639     621    2554    2555+
+           2556    2520
CQUAD8       587       1     621     639     640     622    2556    2557+
+           2558    2522
CQUAD8       588       1     622     640     641     623    2558    2559+
+           2560    2524
CQUAD8       589       1     623     641     642     624    2560    2561+
+           2562    2526
CQUAD8       590       1     624     642     643     625    2562    2563+
+           2564    2528
CQUAD8       591       1     625     643     644     626    2564    2565+
+           2566    2530
CQUAD8       592       1     626     644     645     627    2566    2567+
+           2568    2532
CQUAD8       593       1     627     645     646     628    2568    2569+
+           2570    2534
CQUAD8       594       1     628     646     647     629    2570    2571+
+           2572    2536
CQUAD8       595       1     629     647     648     630    2572    2573+
+           2574    2538
CQUAD8       596       1     631     649     650     632    2575    2576+
+           2577    2541
CQUAD8       597       1     632     650     651     633    2577    2578+
+           2579    2543
CQUAD8       598       1     633     651     652     634    2579    2580+
+           2581    2545
CQUAD8       599       1     634     652     653     635    2581    2582+
+           2583    2547
CQUAD8       600       1     635     653     654     636    2583    2584+
+           2585    2549
CQUAD8       601       1     636     654     655     637    2585    2586+
+           2587    2551
CQUAD8       602       1     637     655     656     638    2587    2588+
+           2589    2553
CQUAD8       603       1     638     656     657     639    2589    2590+
+           2591    2555
CQUAD8       604       1     639     657     658     640    2591    2592+
+           2593    2557
CQUAD8       605       1     640     658     659     641    2593    2594+
+           2595    2559
CQUAD8       606       1     641     659     660     642    2595    2596+
+           2597    2561
CQUAD8       607       1     642     660     661     643    2597    2598+
+           2599    2563
CQUAD8       608       1     643     661     662     644    2599    2600+
+           2601    2565
CQUAD8       609       1     644     662     663     645    2601    2602+
+           2603    2567
CQUAD8       610       1     645     663     664     646    2603    2604+
+           2605    2569
CQUAD8       611       1     646     664     665     647    2605    2606+
+           2607    2571
CQUAD8       612       1     647     665     666     648    2607    2608+
+           2609    2573
CQUAD8       613       1     649     667     668     650    2610    2611+
+           2612    2576
CQUAD8       614       1     650     668     669     651    2612    2613+
+           2614    2578
CQUAD8       615       1     651     669     670     652    2614    2615+
+           2616    2580
CQUAD8       616       1     652     670     671     653    2616    2617+
+           2618    2582
CQUAD8       617       1     653     671     672     654    2618    2619+
+           2620    2584
CQUAD8       618       1     654     672     673     655    2620    2621+
+           2622    2586
CQUAD8       619       1     655     673     674     656    2622    2623+
+           2624    2588
CQUAD8       620       1     656     674     675     657    2624    2625+
+           2626    2590
CQUAD8       621       1     657     675     676     658    2626    2627+
+           2628    2592
CQUAD8       622       1     658     676     677     659    2628    2629+
+           2630    2594
CQUAD8       623       1     659     677     678     660    2630    2631+
+           2632    2596
CQUAD8       624       1     660     678     679     661    2632    2633+
+           2634    2598
CQUAD8       625       1     661     679     680     662    2634    2635+
+           2636    2600
CQUAD8       626       1     662     680     681     663    2636    2637+
+           2638    2602
CQUAD8       627       1     663     681     682     664    2638    2639+
+           2640    2604
CQUAD8       628       1     664     682     683     665    2640    2641+
+           2642    2606
CQUAD8       629       1     665     683     684     666    2642    2643+
+           2644    2608
CQUAD8       630       1     667     685     686     668    2645    2646+
+           2647    2611
CQUAD8       631       1     668     686     687     669    2647    2648+
+           2649    2613
CQUAD8       632       1     669     687     688     670    2649    2650+
+           2651    2615
CQUAD8       633       1     670     688     689     671    2651    2652+
+           2653    2617
CQUAD8       634       1     671     689     690     672    2653    2654+
+           2655    2619
CQUAD8       635       1     672     690     691     673    2655    2656+
+           2657    2621
CQUAD8       636       1     673     691     692     674    2657    2658+
+           2659    2623
CQUAD8       637       1     674     692     693     675    2659    2660+
+           2661    2625
CQUAD8       638       1     675     693     694     676    2661    2662+
+           2663    2627
CQUAD8       639       1     676     694     695     677    2663    2664+
+           2665    2629
CQUAD8       640       1     677     695     696     678    2665    2666+
+           2667    2631
CQUAD8       641       1     678     696     697     679    2667    2668+
+           2669    2633
CQUAD8       642       1     679     697     698     680    2669    2670+
+           2671    2635
CQUAD8       643       1     680     698     699     681    2671    2672+
+           2673    2637
CQUAD8       644       1     681     699     700     682    2673    2674+
+           2675    2639
CQUAD8       645       1     682     700     701     683    2675    2676+
+           2677    2641
CQUAD8       646       1     683     701     702     684    2677    2678+
+           2679    2643
CQUAD8       647       1     685     703     704     686    2680    2681+
+           2682    2646
CQUAD8       648       1     686     704     705     687    2682    2683+
+           2684    2648
CQUAD8       649       1     687     705     706     688    2684    2685+
+           2686    2650
CQUAD8       650       1     688     706     707     689    2686    2687+
+           2688    2652
CQUAD8       651       1     689     707     708     690    2688    2689+
+           2690    2654
CQUAD8       652       1     690     708     709     691    2690    2691+
+           2692    2656
CQUAD8       653       1     691     709     710     692    2692    2693+
+           2694    2658
CQUAD8       654       1     692     710     711     693    2694    2695+
+           2696    2660
CQUAD8       655       1     693     711     712     694    2696    2697+
+           2698    2662
CQUAD8       656       1     694     712     713     695    2698    2699+
+           2700    2664
CQUAD8       657       1     695     713     714     696    2700    2701+
+           2702    2666
CQUAD8       658       1     696     714     715     697    2702    2703+
+           2704    2668
CQUAD8       659       1     697     715     716     698    2704    2705+
+           2706    2670
CQUAD8       660       1     698     716     717     699    2706    2707+
+           2708    2672
CQUAD8       661       1     699     717     718     700    2708    2709+
+           2710    2674
CQUAD8       662       1     700     718     719     701    2710    2711+
+           2712    2676
CQUAD8       663       1     701     719     720     702    2712    2713+
+           2714    2678
CQUAD8       664       1     703     721     722     704    2715    2716+
+           2717    2681
CQUAD8       665       1     704     722     723     705    2717    2718+
+           2719    2683
CQUAD8       666       1     705     723     724     706    2719    2720+
+           2721    2685
CQUAD8       667       1     706     724     725     707    2721    2722+
+           2723    2687
CQUAD8       668       1     707     725     726     708    2723    2724+
+           2725    2689
CQUAD8       669       1     708     726     727     709    2725    2726+
+           2727    2691
CQUAD8       670       1     709     727     728     710    2727    2728+
+           2729    2693
CQUAD8       671       1     710     728     729     711    2729    2730+
+           2731    2695
CQUAD8       672       1     711     729     730     712    2731    2732+
+           2733    2697
CQUAD8       673       1     712     730     731     713    2733    2734+
+           2735    2699
CQUAD8       674       1     713     731     732     714    2735    2736+
+           2737    2701
CQUAD8       675       1     714     732     733     715    2737    2738+
+           2739    2703
CQUAD8       676       1     715     733     734     716    2739    2740+
+           2741    2705
CQUAD8       677       1     716     734     735     717    2741    2742+
+           2743    2707
CQUAD8       678       1     717     735     736     718    2743    2744+
+           2745    2709
CQUAD8       679       1     718     736     737     719    2745    2746+
+           2747    2711
CQUAD8       680       1     719     737     738     720    2747    2748+
+           2749    2713
CQUAD8       681       1     721     739     740     722    2750    2751+
+           2752    2716
CQUAD8       682       1     722     740     741     723    2752    2753+
+           2754    2718
CQUAD8       683       1     723     741     742     724    2754    2755+
+           2756    2720
CQUAD8       684       1     724     742     743     725    2756    2757+
+           2758    2722
CQUAD8       685       1     725     743     744     726    2758    2759+
+           2760    2724
CQUAD8       686       1     726     744     745     727    2760    2761+
+           2762    2726
CQUAD8       687       1     727     745     746     728    2762    2763+
+           2764    2728
CQUAD8       688       1     728     746     747     729    2764    2765+
+           2766    2730
CQUAD8       689       1     729     747     748     730    2766    2767+
+           2768    2732
CQUAD8       690       1     730     748     749     731    2768    2769+
+           2770    2734
CQUAD8       691       1     731     749     750     732    2770    2771+
+           2772    2736
CQUAD8       692       1     732     750     751     733    2772    2773+
+           2774    2738
CQUAD8       693       1     733     751     752     734    2774    2775+
+           2776    2740
CQUAD8       694       1     734     752     753     735    2776    2777+
+           2778    2742
CQUAD8       695       1     735     753     754     736    2778    2779+
+           2780    2744
CQUAD8       696       1     736     754     755     737    2780    2781+
+           2782    2746
CQUAD8       697       1     737     755     756     738    2782    2783+
+           2784    2748
CQUAD8       698       1     739     757     758     740    2785    2786+
+           2787    2751
CQUAD8       699       1     740     758     759     741    2787    2788+
+           2789    2753
CQUAD8       700       1     741     759     760     742    2789    2790+
+           2791    2755
CQUAD8       701       1     742     760     761     743    2791    2792+
+           2793    2757
CQUAD8       702       1     743     761     762     744    2793    2794+
+           2795    2759
CQUAD8       703       1     744     762     763     745    2795    2796+
+           2797    2761
CQUAD8       704       1     745     763     764     746    2797    2798+
+           2799    2763
CQUAD8       705       1     746     764     765     747    2799    2800+
+           2801    2765
CQUAD8       706       1     747     765     766     748    2801    2802+
+           2803    2767
CQUAD8       707       1     748     766     767     749    2803    2804+
+           2805    2769
CQUAD8       708       1     749     767     768     750    2805    2806+
+           2807    2771
CQUAD8       709       1     750     768     769     751    2807    2808+
+           2809    2773
CQUAD8       710       1     751     769     770     752    2809    2810+
+           2811    2775
CQUAD8       711       1     752     770     771     753    2811    2812+
+           2813    2777
CQUAD8       712       1     753     771     772     754    2813    2814+
+           2815    2779
CQUAD8       713       1     754     772     773     755    2815    2816+
+           2817    2781
CQUAD8       714       1     755     773     774     756    2817    2818+
+           2819    2783
CQUAD8       715       1     757     775     776     758    2820    2821+
+           2822    2786
CQUAD8       716       1     758     776     777     759    2822    2823+
+           2824    2788
CQUAD8       717       1     759     777     778     760    2824    2825+
+           2826    2790
CQUAD8       718       1     760     778     779     761    2826    2827+
+           2828    2792
CQUAD8       719       1     761     779     780     762    2828    2829+
+           2830    2794
CQUAD8       720       1     762     780     781     763    2830    2831+
+           2832    2796
CQUAD8       721       1     763     781     782     764    2832    2833+
+           2834    2798
CQUAD8       722       1     764     782     783     765    2834    2835+
+           2836    2800
CQUAD8       723       1     765     783     784     766    2836    2837+
+           2838    2802
CQUAD8       724       1     766     784     785     767    2838    2839+
+           2840    2804
CQUAD8       725       1     767     785     786     768    2840    2841+
+           2842    2806
CQUAD8       726       1     768     786     787     769    2842    2843+
+           2844    2808
CQUAD8       727       1     769     787     788     770    2844    2845+
+           2846    2810
CQUAD8       728       1     770     788     789     771    2846    2847+
+           2848    2812
CQUAD8       729       1     771     789     790     772    2848    2849+
+           2850    2814
CQUAD8       730       1     772     790     791     773    2850    2851+
+           2852    2816
CQUAD8       731       1     773     791     792     774    2852    2853+
+           2854    2818
CQUAD8       732       1     775     793     794     776    2855    2856+
+           2857    2821
CQUAD8       733       1     776     794     795     777    2857    2858+
+           2859    2823
CQUAD8       734       1     777     795     796     778    2859    2860+
+           2861    2825
CQUAD8       735       1     778     796     797     779    2861    2862+
+           2863    2827
CQUAD8       736       1     779     797     798     780    2863    2864+
+           2865    2829
CQUAD8       737       1     780     798     799     781    2865    2866+
+           2867    2831
CQUAD8       738       1     781     799     800     782    2867    2868+
+           2869    2833
CQUAD8       739       1     782     800     801     783    2869    2870+
+           2871    2835
CQUAD8       740       1     783     801     802     784    2871    2872+
+           2873    2837
CQUAD8       741       1     784     802     803     785    2873    2874+
+           2875    2839
CQUAD8       742       1     785     803     804     786    2875    2876+
+           2877    2841
CQUAD8       743       1     786     804     805     787    2877    2878+
+           2879    2843
CQUAD8       744       1     787     805     806     788    2879    2880+
+           2881    2845
CQUAD8       745       1     788     806     807     789    2881    2882+
+           2883    2847
CQUAD8       746       1     789     807     808     790    2883    2884+
+           2885    2849
CQUAD8       747       1     790     808     809     791    2885    2886+
+           2887    2851
CQUAD8       748       1     791     809     810     792    2887    2888+
+           2889    2853
CQUAD8       749       1     793     811     812     794    2890    2891+
+           2892    2856
CQUAD8       750       1     794     812     813     795    2892    2893+
+           2894    2858
CQUAD8       751       1     795     813     814     796    2894    2895+
+           2896    2860
CQUAD8       752       1     796     814     815     797    2896    2897+
+           2898    2862
CQUAD8       753       1     797     815     816     798    2898    2899+
+           2900    2864
CQUAD8       754       1     798     816     817     799    2900    2901+
+           2902    2866
CQUAD8       755       1     799     817     818     800    2902    2903+
+           2904    2868
CQUAD8       756       1     800     818     819     801    2904    2905+
+           2906    2870
CQUAD8       757       1     801     819     820     802    2906    2907+
+           2908    2872
CQUAD8       758       1     802     820     821     803    2908    2909+
+           2910    2874
CQUAD8       759       1     803     821     822     804    2910    2911+
+           2912    2876
CQUAD8       760       1     804     822     823     805    2912    2913+
+           2914    2878
CQUAD8       761       1     805     823     824     806    2914    2915+
+           2916    2880
CQUAD8       762       1     806     824     825     807    2916    2917+
+           2918    2882
CQUAD8       763       1     807     825     826     808    2918    2919+
+           2920    2884
CQUAD8       764       1     808     826     827     809    2920    2921+
+           2922    2886
CQUAD8       765       1     809     827     828     810    2922    2923+
+           2924    2888
CQUAD8       766       1     811     829     830     812    2925    2926+
+           2927    2891
CQUAD8       767       1     812     830     831     813    2927    2928+
+           2929    2893
CQUAD8       768       1     813     831     832     814    2929    2930+
+           2931    2895
CQUAD8       769       1     814     832     833     815    2931    2932+
+           2933    2897
CQUAD8       770       1     815     833     834     816    2933    2934+
+           2935    2899
CQUAD8       771       1     816     834     835     817    2935    2936+
+           2937    2901
CQUAD8       772       1     817     835     836     818    2937    2938+
+           2939    2903
CQUAD8       773       1     818     836     837     819    2939    2940+
+           2941    2905
CQUAD8       774       1     819     837     838     820    2941    2942+
+           2943    2907
CQUAD8       775       1     820     838     839     821    2943    2944+
+           2945    2909
CQUAD8       776       1     821     839     840     822    2945    2946+
+           2947    2911
CQUAD8       777       1     822     840     841     823    2947    2948+
+           2949    2913
CQUAD8       778       1     823     841     842     824    2949    2950+
+           2951    2915
CQUAD8       779       1     824     842     843     825    2951    2952+
+           2953    2917
CQUAD8       780       1     825     843     844     826    2953    2954+
+           2955    2919
CQUAD8       781       1     826     844     845     827    2955    2956+
+           2957    2921
CQUAD8       782       1     827     845     846     828    2957    2958+
+           2959    2923
CQUAD8       783       1     829     847     848     830    2960    2961+
+           2962    2926
CQUAD8       784       1     830     848     849     831    2962    2963+
+           2964    2928
CQUAD8       785       1     831     849     850     832    2964    2965+
+           2966    2930
CQUAD8       786       1     832     850     851     833    2966    2967+
+           2968    2932
CQUAD8       787       1     833     851     852     834    2968    2969+
+           2970    2934
CQUAD8       788       1     834     852     853     835    2970    2971+
+           2972    2936
CQUAD8       789       1     835     853     854     836    2972    2973+
+           2974    2938
CQUAD8       790       1     836     854     855     837    2974    2975+
+           2976    2940
CQUAD8       791       1     837     855     856     838    2976    2977+
+           2978    2942
CQUAD8       792       1     838     856     857     839    2978    2979+
+           2980    2944
CQUAD8       793       1     839     857     858     840    2980    2981+
+           2982    2946
CQUAD8       794       1     840     858     859     841    2982    2983+
+           2984    2948
CQUAD8       795       1     841     859     860     842    2984    2985+
+           2986    2950
CQUAD8       796       1     842     860     861     843    2986    2987+
+           2988    2952
CQUAD8       797       1     843     861     862     844    2988    2989+
+           2990    2954
CQUAD8       798       1     844     862     863     845    2990    2991+
+           2992    2956
CQUAD8       799       1     845     863     864     846    2992    2993+
+           2994    2958
CQUAD8       800       1     847     865     866     848    2995    2996+
+           2997    2961
CQUAD8       801       1     848     866     867     849    2997    2998+
+           2999    2963
CQUAD8       802       1     849     867     868     850    2999    3000+
+           3001    2965
CQUAD8       803       1     850     868     869     851    3001    3002+
+           3003    2967
CQUAD8       804       1     851     869     870     852    3003    3004+
+           3005    2969
CQUAD8       805       1     852     870     871     853    3005    3006+
+           3007    2971
CQUAD8       806       1     853     871     872     854    3007    3008+
+           3009    2973
CQUAD8       807       1     854     872     873     855    3009    3010+
+           3011    2975
CQUAD8       808       1     855     873     874     856    3011    3012+
+           3013    2977
CQUAD8       809       1     856     874     875     857    3013    3014+
+           3015    2979
CQUAD8       810       1     857     875     876     858    3015    3016+
+           3017    2981
CQUAD8       811       1     858     876     877     859    3017    3018+
+           3019    2983
CQUAD8       812       1     859     877     878     860    3019    3020+
+           3021    2985
CQUAD8       813       1     860     878     879     861    3021    3022+
+           3023    2987
CQUAD8       814       1     861     879     880     862    3023    3024+
+           3025    2989
CQUAD8       815       1     862     880     881     863    3025    3026+
+           3027    2991
CQUAD8       816       1     863     881     882     864    3027    3028+
+           3029    2993
CQUAD8       817       1     865     883     884     866    3030    3031+
+           3032    2996
CQUAD8       818       1     866     884     885     867    3032    3033+
+           3034    2998
CQUAD8       819       1     867     885     886     868    3034    3035+
+           3036    3000
CQUAD8       820       1     868     886     887     869    3036    3037+
+           3038    3002
CQUAD8       821       1     869     887     888     870    3038    3039+
+           3040    3004
CQUAD8       822       1     870     888     889     871    3040    3041+
+           3042    3006
CQUAD8       823       1     871     889     890     872    3042    3043+
+           3044    3008
CQUAD8       824       1     872     890     891     873    3044    3045+
+           3046    3010
CQUAD8       825       1     873     891     892     874    3046    3047+
+           3048    3012
CQUAD8       826       1     874     892     893     875    3048    3049+
+           3050    3014
CQUAD8       827       1     875     893     894     876    3050    3051+
+           3052    3016
CQUAD8       828       1     876     894     895     877    3052    3053+
+           3054    3018
CQUAD8       829       1     877     895     896     878    3054    3055+
+           3056    3020
CQUAD8       830       1     878     896     897     879    3056    3057+
+           3058    3022
CQUAD8       831       1     879     897     898     880    3058    3059+
+           3060    3024
CQUAD8       832       1     880     898     899     881    3060    3061+
+           3062    3026
CQUAD8       833       1     881     899     900     882    3062    3063+
+           3064    3028
CQUAD8       834       1     883     901     902     884    3065    3066+
+           3067    3031
CQUAD8       835       1     884     902     903     885    3067    3068+
+           3069    3033
CQUAD8       836       1     885     903     904     886    3069    3070+
+           3071    3035
CQUAD8       837       1     886     904     905     887    3071    3072+
+           3073    3037
CQUAD8       838       1     887     905     906     888    3073    3074+
+           3075    3039
CQUAD8       839       1     888     906     907     889    3075    3076+
+           3077    3041
CQUAD8       840       1     889     907     908     890    3077    3078+
+           3079    3043
CQUAD8       841       1     890     908     909     891    3079    3080+
+           3081    3045
CQUAD8       842       1     891     909     910     892    3081    3082+
+           3083    3047
CQUAD8       843       1     892     910     911     893    3083    3084+
+           3085    3049
CQUAD8       844       1     893     911     912     894    3085    3086+
+           3087    3051
CQUAD8       845       1     894     912     913     895    3087    3088+
+           3089    3053
CQUAD8       846       1     895     913     914     896    3089    3090+
+           3091    3055
CQUAD8       847       1     896     914     915     897    3091    3092+
+           3093    3057
CQUAD8       848       1     897     915     916     898    3093    3094+
+           3095    3059
CQUAD8       849       1     898     916     917     899    3095    3096+
+           3097    3061
CQUAD8       850       1     899     917     918     900    3097    3098+
+           3099    3063
CQUAD8       851       1     901     919     920     902    3100    3101+
+           3102    3066
CQUAD8       852       1     902     920     921     903    3102    3103+
+           3104    3068
CQUAD8       853       1     903     921     922     904    3104    3105+
+           3106    3070
CQUAD8       854       1     904     922     923     905    3106    3107+
+           3108    3072
CQUAD8       855       1     905     923     924     906    3108    3109+
+           3110    3074
CQUAD8       856       1     906     924     925     907    3110    3111+
+           3112    3076
CQUAD8       857       1     907     925     926     908    3112    3113+
+           3114    3078
CQUAD8       858       1     908     926     927     909    3114    3115+
+           3116    3080
CQUAD8       859       1     909     927     928     910    3116    3117+
+           3118    3082
CQUAD8       860       1     910     928     929     911    3118    3119+
+           3120    3084
CQUAD8       861       1     911     929     930     912    3120    3121+
+           3122    3086
CQUAD8       862       1     912     930     931     913    3122    3123+
+           3124    3088
CQUAD8       863       1     913     931     932     914    3124    3125+
+           3126    3090
CQUAD8       864       1     914     932     933     915    3126    3127+
+           3128    3092
CQUAD8       865       1     915     933     934     916    3128    3129+
+           3130    3094
CQUAD8       866       1     916     934     935     917    3130    3131+
+           3132    3096
CQUAD8       867       1     917     935     936     918    3132    3133+
+           3134    3098
CQUAD8       868       1     919     937     938     920    3135    3136+
+           3137    3101
CQUAD8       869       1     920     938     939     921    3137    3138+
+           3139    3103
CQUAD8       870       1     921     939     940     922    3139    3140+
+           3141    3105
CQUAD8       871       1     922     940     941     923    3141    3142+
+           3143    3107
CQUAD8       872       1     923     941     942     924    3143    3144+
+           3145    3109
CQUAD8       873       1     924     942     943     925    3145    3146+
+           3147    3111
CQUAD8       874       1     925     943     944     926    3147    3148+
+           3149    3113
CQUAD8       875       1     926     944     945     927    3149    3150+
+           3151    3115
CQUAD8       876       1     927     945     946     928    3151    3152+
+           3153    3117
CQUAD8       877       1     928     946     947     929    3153    3154+
+           3155    3119
CQUAD8       878       1     929     947     948     930    3155    3156+
+           3157    3121
CQUAD8       879       1     930     948     949     931    3157    3158+
+           3159    3123
CQUAD8       880       1     931     949     950     932    3159    3160+
+           3161    3125
CQUAD8       881       1     932     950     951     933    3161    3162+
+           3163    3127
CQUAD8       882       1     933     951     952     934    3163    3164+
+           3165    3129
CQUAD8       883       1     934     952     953     935    3165    3166+
+           3167    3131
CQUAD8       884       1     935     953     954     936    3167    3168+
+           3169    3133
CQUAD8       885       1     937     955     956     938    3170    3171+
+           3172    3136
CQUAD8       886       1     938     956     957     939    3172    3173+
+           3174    3138
CQUAD8       887       1     939     957     958     940    3174    3175+
+           3176    3140
CQUAD8       888       1     940     958     959     941    3176    3177+
+           3178    3142
CQUAD8       889       1     941     959     960     942    3178    3179+
+           3180    3144
CQUAD8       890       1     942     960     961     943    3180    3181+
+           3182    3146
CQUAD8       891       1     943     961     962     944    3182    3183+
+           3184    3148
CQUAD8       892       1     944     962     963     945    3184    3185+
+           3186    3150
CQUAD8       893       1     945     963     964     946    3186    3187+
+           3188    3152
CQUAD8       894       1     946     964     965     947    3188    3189+
+           3190    3154
CQUAD8       895       1     947     965     966     948    3190    3191+
+           3192    3156
CQUAD8       896       1     948     966     967     949    3192    3193+
+           3194    3158
CQUAD8       897       1     949     967     968     950    3194    3195+
+           3196    3160
CQUAD8       898       1     950     968     969     951    3196    3197+
+           3198    3162
CQUAD8       899       1     951     969     970     952    3198    3199+
+           3200    3164
CQUAD8       900       1     952     970     971     953    3200    3201+
+           3202    3166
CQUAD8       901       1     953     971     972     954    3202    3203+
+           3204    3168
CQUAD8       902       1     955     973     974     956    3205    3206+
+           3207    3171
CQUAD8       903       1     956     974     975     957    3207    3208+
+           3209    3173
CQUAD8       904       1     957     975     976     958    3209    3210+
+           3211    3175
CQUAD8       905       1     958     976     977     959    3211    3212+
+           3213    3177
CQUAD8       906       1     959     977     978     960    3213    3214+
+           3215    3179
CQUAD8       907       1     960     978     979     961    3215    3216+
+           3217    3181
CQUAD8       908       1     961     979     980     962    3217    3218+
+           3219    3183
CQUAD8       909       1     962     980     981     963    3219    3220+
+           3221    3185
CQUAD8       910       1     963     981     982     964    3221    3222+
+           3223    3187
CQUAD8       911       1     964     982     983     965    3223    3224+
+           3225    3189
CQUAD8       912       1     965     983     984     966    3225    3226+
+           3227    3191
CQUAD8       913       1     966     984     985     967    3227    3228+
+           3229    3193
CQUAD8       914       1     967     985     986     968    3229    3230+
+           3231    3195
CQUAD8       915       1     968     986     987     969    3231    3232+
+           3233    3197
CQUAD8       916       1     969     987     988     970    3233    3234+
+           3235    3199
CQUAD8       917       1     970     988     989     971    3235    3236+
+           3237    3201
CQUAD8       918       1     971     989     990     972    3237    3238+
+           3239    3203
CQUAD8       919       1     973     991     992     974    3240    3241+
+           3242    3206
CQUAD8       920       1     974     992     993     975    3242    3243+
+           3244    3208
CQUAD8       921       1     975     993     994     976    3244    3245+
+           3246    3210
CQUAD8       922       1     976     994     995     977    3246    3247+
+           3248    3212
CQUAD8       923       1     977     995     996     978    3248    3249+
+           3250    3214
CQUAD8       924       1     978     996     997     979    3250    3251+
+           3252    3216
CQUAD8       925       1     979     997     998     980    3252    3253+
+           3254    3218
CQUAD8       926       1     980     998     999     981    3254    3255+
+           3256    3220
CQUAD8       927       1     981     999    1000     982    3256    3257+
+           3258    3222
CQUAD8       928       1     982    1000    1001     983    3258    3259+
+           3260    3224
CQUAD8       929       1     983    1001    1002     984    3260    3261+
+           3262    3226
CQUAD8       930       1     984    1002    1003     985    3262    3263+
+           3264    3228
CQUAD8       931       1     985    1003    1004     986    3264    3265+
+           3266    3230
CQUAD8       932       1     986    1004    1005     987    3266    3267+
+           3268    3232
CQUAD8       933       1     987    1005    1006     988    3268    3269+
+           3270    3234
CQUAD8       934       1     988    1006    1007     989    3270    3271+
+           3272    3236
CQUAD8       935       1     989    1007    1008     990    3272    3273+
+           3274    3238
CQUAD8       936       1     991    1009    1010     992    3275    3276+
+           3277    3241
CQUAD8       937       1     992    1010    1011     993    3277    3278+
+           3279    3243
CQUAD8       938       1     993    1011    1012     994    3279    3280+
+           3281    3245
CQUAD8       939       1     994    1012    1013     995    3281    3282+
+           3283    3247
CQUAD8       940       1     995    1013    1014     996    3283    3284+
+           3285    3249
CQUAD8       941       1     996    1014    1015     997    3285    3286+
+           3287    3251
CQUAD8       942       1     997    1015    1016     998    3287    3288+
+           3289    3253
CQUAD8       943       1     998    1016    1017     999    3289    3290+
+           3291    3255
CQUAD8       944       1     999    1017    1018    1000    3291    3292+
+           3293    3257
CQUAD8       945       1    1000    1018    1019    1001    3293    3294+
+           3295    3259
CQUAD8       946       1    1001    1019    1020    1002    3295    3296+
+           3297    3261
CQUAD8       947       1    1002    1020    1021    1003    3297    3298+
+           3299    3263
CQUAD8       948       1    1003    1021    1022    1004    3299    3300+
+           3301    3265
CQUAD8       949       1    1004    1022    1023    1005    3301    3302+
+           3303    3267
CQUAD8       950       1    1005    1023    1024    1006    3303    3304+
+           3305    3269
CQUAD8       951       1    1006    1024    1025    1007    3305    3306+
+           3307    3271
CQUAD8       952       1    1007    1025    1026    1008    3307    3308+
+           3309    3273
CQUAD8       953       1    1009    1027    1028    1010    3310    3311+
+           3312    3276
CQUAD8       954       1    1010    1028    1029    1011    3312    3313+
+           3314    3278
CQUAD8       955       1    1011    1029    1030    1012    3314    3315+
+           3316    3280
CQUAD8       956       1    1012    1030    1031    1013    3316    3317+
+           3318    3282
CQUAD8       957       1    1013    1031    1032    1014    3318    3319+
+           3320    3284
CQUAD8       958       1    1014    1032    1033    1015    3320    3321+
+           3322    3286
CQUAD8       959       1    1015    1033    1034    1016    3322    3323+
+           3324    3288
CQUAD8       960       1    1016    1034    1035    1017    3324    3325+
+           3326    3290
CQUAD8       961       1    1017    1035    1036    1018    3326    3327+
+           3328    3292
CQUAD8       962       1    1018    1036    1037    1019    3328    3329+
+           3330    3294
CQUAD8       963       1    1019    1037    1038    1020    3330    3331+
+           3332    3296
CQUAD8       964       1    1020    1038    1039    1021    3332    3333+
+           3334    3298
CQUAD8       965       1    1021    1039    1040    1022    3334    3335+
+           3336    3300
CQUAD8       966       1    1022    1040    1041    1023    3336    3337+
+           3338    3302
CQUAD8       967       1    1023    1041    1042    1024    3338    3339+
+           3340    3304
CQUAD8       968       1    1024    1042    1043    1025    3340    3341+
+           3342    3306
CQUAD8       969       1    1025    1043    1044    1026    3342    3343+
+           3344    3308
CQUAD8       970       1    1027    1045    1046    1028    3345    3346+
+           3347    3311
CQUAD8       971       1    1028    1046    1047    1029    3347    3348+
+           3349    3313
CQUAD8       972       1    1029    1047    1048    1030    3349    3350+
+           3351    3315
CQUAD8       973       1    1030    1048    1049    1031    3351    3352+
+           3353    3317
CQUAD8       974       1    1031    1049    1050    1032    3353    3354+
+           3355    3319
CQUAD8       975       1    1032    1050    1051    1033    3355    3356+
+           3357    3321
CQUAD8       976       1    1033    1051    1052    1034    3357    3358+
+           3359    3323
CQUAD8       977       1    1034    1052    1053    1035    3359    3360+
+           3361    3325
CQUAD8       978       1    1035    1053    1054    1036    3361    3362+
+           3363    3327
CQUAD8       979       1    1036    1054    1055    1037    3363    3364+
+           3365    3329
CQUAD8       980       1    1037    1055    1056    1038    3365    3366+
+           3367    3331
CQUAD8       981       1    1038    1056    1057    1039    3367    3368+
+           3369    3333
CQUAD8       982       1    1039    1057    1058    1040    3369    3370+
+           3371    3335
CQUAD8       983       1    1040    1058    1059    1041    3371    3372+
+           3373    3337
CQUAD8       984       1    1041    1059    1060    1042    3373    3374+
+           3375    3339
CQUAD8       985       1    1042    1060    1061    1043    3375    3376+
+           3377    3341
CQUAD8       986       1    1043    1061    1062    1044    3377    3378+
+           3379    3343
CQUAD8       987       1    1045    1063    1064    1046    3380    3381+
+           3382    3346
CQUAD8       988       1    1046    1064    1065    1047    3382    3383+
+           3384    3348
CQUAD8       989       1    1047    1065    1066    1048    3384    3385+
+           3386    3350
CQUAD8       990       1    1048    1066    1067    1049    3386    3387+
+           3388    3352
CQUAD8       991       1    1049    1067    1068    1050    3388    3389+
+           3390    3354
CQUAD8       992       1    1050    1068    1069    1051    3390    3391+
+           3392    3356
CQUAD8       993       1    1051    1069    1070    1052    3392    3393+
+           3394    3358
CQUAD8       994       1    1052    1070    1071    1053    3394    3395+
+           3396    3360
CQUAD8       995       1    1053    1071    1072    1054    3396    3397+
+           3398    3362
CQUAD8       996       1    1054    1072    1073    1055    3398    3399+
+           3400    3364
CQUAD8       997       1    1055    1073    1074    1056    3400    3401+
+           3402    3366
CQUAD8       998       1    1056    1074    1075    1057    3402    3403+
+           3404    3368
CQUAD8       999       1    1057    1075    1076    1058    3404    3405+
+           3406    3370
CQUAD8      1000       1    1058    1076    1077    1059    3406    3407+
+           3408    3372
CQUAD8      1001       1    1059    1077    1078    1060    3408    3409+
+           3410    3374
CQUAD8      1002       1    1060    1078    1079    1061    3410    3411+
+           3412    3376
CQUAD8      1003       1    1061    1079    1080    1062    3412    3413+
+           3414    3378
CQUAD8      1004       1    1063    1081    1082    1064    3415    3416+
+           3417    3381
CQUAD8      1005       1    1064    1082    1083    1065    3417    3418+
+           3419    3383
CQUAD8      1006       1    1065    1083    1084    1066    3419    3420+
+           3421    3385
CQUAD8      1007       1    1066    1084    1085    1067    3421    3422+
+           3423    3387
CQUAD8      1008       1    1067    1085    1086    1068    3423    3424+
+           3425    3389
CQUAD8      1009       1    1068    1086    1087    1069    3425    3426+
+           3427    3391
CQUAD8      1010       1    1069    1087    1088    1070    3427    3428+
+           3429    3393
CQUAD8      1011       1    1070    1088    1089    1071    3429    3430+
+           3431    3395
CQUAD8      1012       1    1071    1089    1090    1072    3431    3432+
+           3433    3397
CQUAD8      1013       1    1072    1090    1091    1073    3433    3434+
+           3435    3399
CQUAD8      1014       1    1073    1091    1092    1074    3435    3436+
+           3437    3401
CQUAD8      1015       1    1074    1092    1093    1075    3437    3438+
+           3439    3403
CQUAD8      1016       1    1075    1093    1094    1076    3439    3440+
+           3441    3405
CQUAD8      1017       1    1076    1094    1095    1077    3441    3442+
+           3443    3407
CQUAD8      1018       1    1077    1095    1096    1078    3443    3444+
+           3445    3409
CQUAD8      1019       1    1078    1096    1097    1079    3445    3446+
+           3447    3411
CQUAD8      1020       1    1079    1097    1098    1080    3447    3448+
+           3449    3413
CQUAD8      1021       1    1081    1099    1100    1082    3450    3451+
+           3452    3416
CQUAD8      1022       1    1082    1100    1101    1083    3452    3453+
+           3454    3418
CQUAD8      1023       1    1083    1101    1102    1084    3454    3455+
+           3456    3420
CQUAD8      1024       1    1084    1102    1103    1085    3456    3457+
+           3458    3422
CQUAD8      1025       1    1085    1103    1104    1086    3458    3459+
+           3460    3424
CQUAD8      1026       1    1086    1104    1105    1087    3460    3461+
+           3462    3426
CQUAD8      1027       1    1087    1105    1106    1088    3462    3463+
+           3464    3428
CQUAD8      1028       1    1088    1106    1107    1089    3464    3465+
+           3466    3430
CQUAD8      1029       1    1089    1107    1108    1090    3466    3467+
+           3468    3432
CQUAD8      1030       1    1090    1108    1109    1091    3468    3469+
+           3470    3434
CQUAD8      1031       1    1091    1109    1110    1092    3470    3471+
+           3472    3436
CQUAD8      1032       1    1092    1110    1111    1093    3472    3473+
+           3474    3438
CQUAD8      1033       1    1093    1111    1112    1094    3474    3475+
+           3476    3440
CQUAD8      1034       1    1094    1112    1113    1095    3476    3477+
+           3478    3442
CQUAD8      1035       1    1095    1113    1114    1096    3478    3479+
+           3480    3444
CQUAD8      1036       1    1096    1114    1115    1097    3480    3481+
+           3482    3446
CQUAD8      1037       1    1097    1115    1116    1098    3482    3483+
+           3484    3448
CQUAD8      1038       1    1099    1117    1118    1100    3485    3486+
+           3487    3451
CQUAD8      1039       1    1100    1118    1119    1101    3487    3488+
+           3489    3453
CQUAD8      1040       1    1101    1119    1120    1102    3489    3490+
+           3491    3455
CQUAD8      1041       1    1102    1120    1121    1103    3491    3492+
+           3493    3457
CQUAD8      1042       1    1103    1121    1122    1104    3493    3494+
+           3495    3459
CQUAD8      1043       1    1104    1122    1123    1105    3495    3496+
+           3497    3461
CQUAD8      1044       1    1105    1123    1124    1106    3497    3498+
+           3499    3463
CQUAD8      1045       1    1106    1124    1125    1107    3499    3500+
+           3501    3465
CQUAD8      1046       1    1107    1125    1126    1108    3501    3502+
+           3503    3467
CQUAD8      1047       1    1108    1126    1127    1109    3503    3504+
+           3505    3469
CQUAD8      1048       1    1109    1127    1128    1110    3505    3506+
+           3507    3471
CQUAD8      1049       1    1110    1128    1129    1111    3507    3508+
+           3509    3473
CQUAD8      1050       1    1111    1129    1130    1112    3509    3510+
+           3511    3475
CQUAD8      1051       1    1112    1130    1131    1113    3511    3512+
+           3513    3477
CQUAD8      1052       1    1113    1131    1132    1114    3513    3514+
+           3515    3479
CQUAD8      1053       1    1114    1132    1133    1115    3515    3516+
+           3517    3481
CQUAD8      1054       1    1115    1133    1134    1116    3517    3518+
+           3519    3483
CQUAD8      1055       1    1117    1135    1136    1118    3520    3521+
+           3522    3486
CQUAD8      1056       1    1118    1136    1137    1119    3522    3523+
+           3524    3488
CQUAD8      1057       1    1119    1137    1138    1120    3524    3525+
+           3526    3490
CQUAD8      1058       1    1120    1138    1139    1121    3526    3527+
+           3528    3492
CQUAD8      1059       1    1121    1139    1140    1122    3528    3529+
+           3530    3494
CQUAD8      1060       1    1122    1140    1141    1123    3530    3531+
+           3532    3496
CQUAD8      1061       1    1123    1141    1142    1124    3532    3533+
+           3534    3498
CQUAD8      1062       1    1124    1142    1143    1125    3534    3535+
+           3536    3500
CQUAD8      1063       1    1125    1143    1144    1126    3536    3537+
+           3538    3502
CQUAD8      1064       1    1126    1144    1145    1127    3538    3539+
+           3540    3504
CQUAD8      1065       1    1127    1145    1146    1128    3540    3541+
+           3542    3506
CQUAD8      1066       1    1128    1146    1147    1129    3542    3543+
+           3544    3508
CQUAD8      1067       1    1129    1147    1148    1130    3544    3545+
+           3546    3510
CQUAD8      1068       1    1130    1148    1149    1131    3546    3547+
+           3548    3512
CQUAD8      1069       1    1131    1149    1150    1132    3548    3549+
+           3550    3514
CQUAD8      1070       1    1132    1150    1151    1133    3550    3551+
+           3552    3516
CQUAD8      1071       1    1133    1151    1152    1134    3552    3553+
+           3554    3518
CQUAD8      1072       1    1135    1153    1154    1136    3555    3556+
+           3557    3521
CQUAD8      1073       1    1136    1154    1155    1137    3557    3558+
+           3559    3523
CQUAD8      1074       1    1137    1155    1156    1138    3559    3560+
+           3561    3525
CQUAD8      1075       1    1138    1156    1157    1139    3561    3562+
+           3563    3527
CQUAD8      1076       1    1139    1157    1158    1140    3563    3564+
+           3565    3529
CQUAD8      1077       1    1140    1158    1159    1141    3565    3566+
+           3567    3531
CQUAD8      1078       1    1141    1159    1160    1142    3567    3568+
+           3569    3533
CQUAD8      1079       1    1142    1160    1161    1143    3569    3570+
+           3571    3535
CQUAD8      1080       1    1143    1161    1162    1144    3571    3572+
+           3573    3537
CQUAD8      1081       1    1144    1162    1163    1145    3573    3574+
+           3575    3539
CQUAD8      1082       1    1145    1163    1164    1146    3575    3576+
+           3577    3541
CQUAD8      1083       1    1146    1164    1165    1147    3577    3578+
+           3579    3543
CQUAD8      1084       1    1147    1165    1166    1148    3579    3580+
+           3581    3545
CQUAD8      1085       1    1148    1166    1167    1149    3581    3582+
+           3583    3547
CQUAD8      1086       1    1149    1167    1168    1150    3583    3584+
+           3585    3549
CQUAD8      1087       1    1150    1168    1169    1151    3585    3586+
+           3587    3551
CQUAD8      1088       1    1151    1169    1170    1152    3587    3588+
+           3589    3553
CQUAD8      1089       1    1153    1171    1172    1154    3590    3591+
+           3592    3556
CQUAD8      1090       1    1154    1172    1173    1155    3592    3593+
+           3594    3558
CQUAD8      1091       1    1155    1173    1174    1156    3594    3595+
+           3596    3560
CQUAD8      1092       1    1156    1174    1175    1157    3596    3597+
+           3598    3562
CQUAD8      1093       1    1157    1175    1176    1158    3598    3599+
+           3600    3564
CQUAD8      1094       1    1158    1176    1177    1159    3600    3601+
+           3602    3566
CQUAD8      1095       1    1159    1177    1178    1160    3602    3603+
+           3604    3568
CQUAD8      1096       1    1160    1178    1179    1161    3604    3605+
+           3606    3570
CQUAD8      1097       1    1161    1179    1180    1162    3606    3607+
+           3608    3572
CQUAD8      1098       1    1162    1180    1181    1163    3608    3609+
+           3610    3574
CQUAD8      1099       1    1163    1181    1182    1164    3610    3611+
+           3612    3576
CQUAD8      1100       1    1164    1182    1183    1165    3612    3613+
+           3614    3578
CQUAD8      1101       1    1165    1183    1184    1166    3614    3615+
+           3616    3580
CQUAD8      1102       1    1166    1184    1185    1167    3616    3617+
+           3618    3582
CQUAD8      1103       1    1167    1185    1186    1168    3618    3619+
+           3620    3584
CQUAD8      1104       1    1168    1186    1187    1169    3620    3621+
+           3622    3586
CQUAD8      1105       1    1169    1187    1188    1170    3622    3623+
+           3624    3588
CQUAD8      1106       1    1171    1189    1190    1172    3625    3626+
+           3627    3591
CQUAD8      1107       1    1172    1190    1191    1173    3627    3628+
+           3629    3593
CQUAD8      1108       1    1173    1191    1192    1174    3629    3630+
+           3631    3595
CQUAD8      1109       1    1174    1192    1193    1175    3631    3632+
+           3633    3597
CQUAD8      1110       1    1175    1193    1194    1176    3633    3634+
+           3635    3599
CQUAD8      1111       1    1176    1194    1195    1177    3635    3636+
+           3637    3601
CQUAD8      1112       1    1177    1195    1196    1178    3637    3638+
+           3639    3603
CQUAD8      1113       1    1178    1196    1197    1179    3639    3640+
+           3641    3605
CQUAD8      1114       1    1179    1197    1198    1180    3641    3642+
+           3643    3607
CQUAD8      1115       1    1180    1198    1199    1181    3643    3644+
+           3645    3609
CQUAD8      1116       1    1181    1199    1200    1182    3645    3646+
+           3647    3611
CQUAD8      1117       1    1182    1200    1201    1183    3647    3648+
+           3649    3613
CQUAD8      1118       1    1183    1201    1202    1184    3649    3650+
+           3651    3615
CQUAD8      1119       1    1184    1202    1203    1185    3651    3652+
+           3653    3617
CQUAD8      1120       1    1185    1203    1204    1186    3653    3654+
+           3655    3619
CQUAD8      1121       1    1186    1204    1205    1187    3655    3656+
+           3657    3621
CQUAD8      1122       1    1187    1205    1206    1188    3657    3658+
+           3659    3623
CQUAD8      1123       1    1189    1207    1208    1190    3660    3661+
+           3662    3626
CQUAD8      1124       1    1190    1208    1209    1191    3662    3663+
+           3664    3628
CQUAD8      1125       1    1191    1209    1210    1192    3664    3665+
+           3666    3630
CQUAD8      1126       1    1192    1210    1211    1193    3666    3667+
+           3668    3632
CQUAD8      1127       1    1193    1211    1212    1194    3668    3669+
+           3670    3634
CQUAD8      1128       1    1194    1212    1213    1195    3670    3671+
+           3672    3636
CQUAD8      1129       1    1195    1213    1214    1196    3672    3673+
+           3674    3638
CQUAD8      1130       1    1196    1214    1215    1197    3674    3675+
+           3676    3640
CQUAD8      1131       1    1197    1215    1216    1198    3676    3677+
+           3678    3642
CQUAD8      1132       1    1198    1216    1217    1199    3678    3679+
+           3680    3644
CQUAD8      1133       1    1199    1217    1218    1200    3680    3681+
+           3682    3646
CQUAD8      1134       1    1200    1218    1219    1201    3682    3683+
+           3684    3648
CQUAD8      1135       1    1201    1219    1220    1202    3684    3685+
+           3686    3650
CQUAD8      1136       1    1202    1220    1221    1203    3686    3687+
+           3688    3652
CQUAD8      1137       1    1203    1221    1222    1204    3688    3689+
+           3690    3654
CQUAD8      1138       1    1204    1222    1223    1205    3690    3691+
+           3692    3656
CQUAD8      1139       1    1205    1223    1224    1206    3692    3693+
+           3694    3658
CQUAD8      1140       1    1207    1225    1226    1208    3695    3696+
+           3697    3661
CQUAD8      1141       1    1208    1226    1227    1209    3697    3698+
+           3699    3663
CQUAD8      1142       1    1209    1227    1228    1210    3699    3700+
+           3701    3665
CQUAD8      1143       1    1210    1228    1229    1211    3701    3702+
+           3703    3667
CQUAD8      1144       1    1211    1229    1230    1212    3703    3704+
+           3705    3669
CQUAD8      1145       1    1212    1230    1231    1213    3705    3706+
+           3707    3671
CQUAD8      1146       1    1213    1231    1232    1214    3707    3708+
+           3709    3673
CQUAD8      1147       1    1214    1232    1233    1215    3709    3710+
+           3711    3675
CQUAD8      1148       1    1215    1233    1234    1216    3711    3712+
+           3713    3677
CQUAD8      1149       1    1216    1234    1235    1217    3713    3714+
+           3715    3679
CQUAD8      1150       1    1217    1235    1236    1218    3715    3716+
+           3717    3681
CQUAD8      1151       1    1218    1236    1237    1219    3717    3718+
+           3719    3683
CQUAD8      1152       1    1219    1237    1238    1220    3719    3720+
+           3721    3685
CQUAD8      1153       1    1220    1238    1239    1221    3721    3722+
+           3723    3687
CQUAD8      1154       1    1221    1239    1240    1222    3723    3724+
+           3725    3689
CQUAD8      1155       1    1222    1240    1241    1223    3725    3726+
+           3727    3691
CQUAD8      1156       1    1223    1241    1242    1224    3727    3728+
+           3729    3693
CQUAD8      1157       1    1225    1243    1244    1226    3730    3731+
+           3732    3696
CQUAD8      1158       1    1226    1244    1245    1227    3732    3733+
+           3734    3698
CQUAD8      1159       1    1227    1245    1246    1228    3734    3735+
+           3736    3700
CQUAD8      1160       1    1228    1246    1247    1229    3736    3737+
+           3738    3702
CQUAD8      1161       1    1229    1247    1248    1230    3738    3739+
+           3740    3704
CQUAD8      1162       1    1230    1248    1249    1231    3740    3741+
+           3742    3706
CQUAD8      1163       1    1231    1249    1250    1232    3742    3743+
+           3744    3708
CQUAD8      1164       1    1232    1250    1251    1233    3744    3745+
+           3746    3710
CQUAD8      1165       1    1233    1251    1252    1234    3746    3747+
+           3748    3712
CQUAD8      1166       1    1234    1252    1253    1235    3748    3749+
+           3750    3714
CQUAD8      1167       1    1235    1253    1254    1236    3750    3751+
+           3752    3716
CQUAD8      1168       1    1236    1254    1255    1237    3752    3753+
+           3754    3718
CQUAD8      1169       1    1237    1255    1256    1238    3754    3755+
+           3756    3720
CQUAD8      1170       1    1238    1256    1257    1239    3756    3757+
+           3758    3722
CQUAD8      1171       1    1239    1257    1258    1240    3758    3759+
+           3760    3724
CQUAD8      1172       1    1240    1258    1259    1241    3760    3761+
+           3762    3726
CQUAD8      1173       1    1241    1259    1260    1242    3762    3763+
+           3764    3728
CQUAD8      1174       1    1243    1261    1262    1244    3765    3766+
+           3767    3731
CQUAD8      1175       1    1244    1262    1263    1245    3767    3768+
+           3769    3733
CQUAD8      1176       1    1245    1263    1264    1246    3769    3770+
+           3771    3735
CQUAD8      1177       1    1246    1264    1265    1247    3771    3772+
+           3773    3737
CQUAD8      1178       1    1247    1265    1266    1248    3773    3774+
+           3775    3739
CQUAD8      1179       1    1248    1266    1267    1249    3775    3776+
+           3777    3741
CQUAD8      1180       1    1249    1267    1268    1250    3777    3778+
+           3779    3743
CQUAD8      1181       1    1250    1268    1269    1251    3779    3780+
+           3781    3745
CQUAD8      1182       1    1251    1269    1270    1252    3781    3782+
+           3783    3747
CQUAD8      1183       1    1252    1270    1271    1253    3783    3784+
+           3785    3749
CQUAD8      1184       1    1253    1271    1272    1254    3785    3786+
+           3787    3751
CQUAD8      1185       1    1254    1272    1273    1255    3787    3788+
+           3789    3753
CQUAD8      1186       1    1255    1273    1274    1256    3789    3790+
+           3791    3755
CQUAD8      1187       1    1256    1274    1275    1257    3791    3792+
+           3793    3757
CQUAD8      1188       1    1257    1275    1276    1258    3793    3794+
+           3795    3759
CQUAD8      1189       1    1258    1276    1277    1259    3795    3796+
+           3797    3761
CQUAD8      1190       1    1259    1277    1278    1260    3797    3798+
+           3799    3763
CQUAD8      1191       1    1261    1279    1280    1262    3800    3801+
+           3802    3766
CQUAD8      1192       1    1262    1280    1281    1263    3802    3803+
+           3804    3768
CQUAD8      1193       1    1263    1281    1282    1264    3804    3805+
+           3806    3770
CQUAD8      1194       1    1264    1282    1283    1265    3806    3807+
+           3808    3772
CQUAD8      1195       1    1265    1283    1284    1266    3808    3809+
+           3810    3774
CQUAD8      1196       1    1266    1284    1285    1267    3810    3811+
+           3812    3776
CQUAD8      1197       1    1267    1285    1286    1268    3812    3813+
+           3814    3778
CQUAD8      1198       1    1268    1286    1287    1269    3814    3815+
+           3816    3780
CQUAD8      1199       1    1269    1287    1288    1270    3816    3817+
+           3818    3782
CQUAD8      1200       1    1270    1288    1289    1271    3818    3819+
+           3820    3784
CQUAD8      1201       1    1271    1289    1290    1272    3820    3821+
+           3822    3786
CQUAD8      1202       1    1272    1290    1291    1273    3822    3823+
+           3824    3788
CQUAD8      1203       1    1273    1291    1292    1274    3824    3825+
+           3826    3790
CQUAD8      1204       1    1274    1292    1293    1275    3826    3827+
+           3828    3792
CQUAD8      1205       1    1275    1293    1294    1276    3828    3829+
+           3830    3794
CQUAD8      1206       1    1276    1294    1295    1277    3830    3831+
+           3832    3796
CQUAD8      1207       1    1277    1295    1296    1278    3832    3833+
+           3834    3798
CQUAD8      1208       1    1279    1297    1298    1280    3835    3836+
+           3837    3801
CQUAD8      1209       1    1280    1298    1299    1281    3837    3838+
+           3839    3803
CQUAD8      1210       1    1281    1299    1300    1282    3839    3840+
+           3841    3805
CQUAD8      1211       1    1282    1300    1301    1283    3841    3842+
+           3843    3807
CQUAD8      1212       1    1283    1301    1302    1284    3843    3844+
+           3845    3809
CQUAD8      1213       1    1284    1302    1303    1285    3845    3846+
+           3847    3811
CQUAD8      1214       1    1285    1303    1304    1286    3847    3848+
+           3849    3813
CQUAD8      1215       1    1286    1304    1305    1287    3849    3850+
+           3851    3815
CQUAD8      1216       1    1287    1305    1306    1288    3851    3852+
+           3853    3817
CQUAD8      1217       1    1288    1306    1307    1289    3853    3854+
+           3855    3819
CQUAD8      1218       1    1289    1307    1308    1290    3855    3856+
+           3857    3821
CQUAD8      1219       1    1290    1308    1309    1291    3857    3858+
+           3859    3823
CQUAD8      1220       1    1291    1309    1310    1292    3859    3860+
+           3861    3825
CQUAD8      1221       1    1292    1310    1311    1293    3861    3862+
+           3863    3827
CQUAD8      1222       1    1293    1311    1312    1294    3863    3864+
+           3865    3829
CQUAD8      1223       1    1294    1312    1313    1295    3865    3866+
+           3867    3831
CQUAD8      1224       1    1295    1313    1314    1296    3867    3868+
+           3869    3833
CQUAD8      1225       1    1297    1315    1316    1298    3870    3871+
+           3872    3836
CQUAD8      1226       1    1298    1316    1317    1299    3872    3873+
+           3874    3838
CQUAD8      1227       1    1299    1317    1318    1300    3874    3875+
+           3876    3840
CQUAD8      1228       1    1300    1318    1319    1301    3876    3877+
+           3878    3842
CQUAD8      1229       1    1301    1319    1320    1302    3878    3879+
+           3880    3844
CQUAD8      1230       1    1302    1320    1321    1303    3880    3881+
+           3882    3846
CQUAD8      1231       1    1303    1321    1322    1304    3882    3883+
+           3884    3848
CQUAD8      1232       1    1304    1322    1323    1305    3884    3885+
+           3886    3850
CQUAD8      1233       1    1305    1323    1324    1306    3886    3887+
+           3888    3852
CQUAD8      1234       1    1306    1324    1325    1307    3888    3889+
+           3890    3854
CQUAD8      1235       1    1307    1325    1326    1308    3890    3891+
+           3892    3856
CQUAD8      1236       1    1308    1326    1327    1309    3892    3893+
+           3894    3858
CQUAD8      1237       1    1309    1327    1328    1310    3894    3895+
+           3896    3860
CQUAD8      1238       1    1310    1328    1329    1311    3896    3897+
+           3898    3862
CQUAD8      1239       1    1311    1329    1330    1312    3898    3899+
+           3900    3864
CQUAD8      1240       1    1312    1330    1331    1313    3900    3901+
+           3902    3866
CQUAD8      1241       1    1313    1331    1332    1314    3902    3903+
+           3904    3868
CQUAD8      1242       1   10818   10348       1   10739   10349    3905+
+           3906   10740
CQUAD8      1243       1   10348   10347      19       1   10350    3907+
+           1333    3905
CQUAD8      1244       1   10347   10346      37      19   10351    3908+
+           1385    3907
CQUAD8      1245       1   10346   10345      55      37   10352    3909+
+           1420    3908
CQUAD8      1246       1   10345   10344      73      55   10353    3910+
+           1455    3909
CQUAD8      1247       1   10344   10343      91      73   10354    3911+
+           1490    3910
CQUAD8      1248       1   10343   10342     109      91   10355    3912+
+           1525    3911
CQUAD8      1249       1   10342   10341     127     109   10356    3913+
+           1560    3912
CQUAD8      1250       1   10341   10340     145     127   10357    3914+
+           1595    3913
CQUAD8      1251       1   10340   10339     163     145   10358    3915+
+           1630    3914
CQUAD8      1252       1   10339   10338     181     163   10359    3916+
+           1665    3915
CQUAD8      1253       1   10338   10337     199     181   10360    3917+
+           1700    3916
CQUAD8      1254       1   10337   10336     217     199   10361    3918+
+           1735    3917
CQUAD8      1255       1   10336   10335     235     217   10362    3919+
+           1770    3918
CQUAD8      1256       1   10335   10334     253     235   10363    3920+
+           1805    3919
CQUAD8      1257       1   10334   10333     271     253   10364    3921+
+           1840    3920
CQUAD8      1258       1   10333   10332     289     271   10365    3922+
+           1875    3921
CQUAD8      1259       1   10332   10331     307     289   10366    3923+
+           1910    3922
CQUAD8      1260       1   10331   10330     325     307   10367    3924+
+           1945    3923
CQUAD8      1261       1   10330   10329     343     325   10368    3925+
+           1980    3924
CQUAD8      1262       1   10329   10328     361     343   10369    3926+
+           2015    3925
CQUAD8      1263       1   10328   10327     379     361   10370    3927+
+           2050    3926
CQUAD8      1264       1   10327   10326     397     379   10371    3928+
+           2085    3927
CQUAD8      1265       1   10326   10325     415     397   10372    3929+
+           2120    3928
CQUAD8      1266       1   10325   10324     433     415   10373    3930+
+           2155    3929
CQUAD8      1267       1   10324   10323     451     433   10374    3931+
+           2190    3930
CQUAD8      1268       1   10323   10322     469     451   10375    3932+
+           2225    3931
CQUAD8      1269       1   10322   10321     487     469   10376    3933+
+           2260    3932
CQUAD8      1270       1   10321   10320     505     487   10377    3934+
+           2295    3933
CQUAD8      1271       1   10320   10319     523     505   10378    3935+
+           2330    3934
CQUAD8      1272       1   10319   10318     541     523   10379    3936+
+           2365    3935
CQUAD8      1273       1   10318   10317     559     541   10380    3937+
+           2400    3936
CQUAD8      1274       1   10317   10316     577     559   10381    3938+
+           2435    3937
CQUAD8      1275       1   10316   10315     595     577   10382    3939+
+           2470    3938
CQUAD8      1276       1   10315   10314     613     595   10383    3940+
+           2505    3939
CQUAD8      1277       1   10314   10313     631     613   10384    3941+
+           2540    3940
CQUAD8      1278       1   10313   10312     649     631   10385    3942+
+           2575    3941
CQUAD8      1279       1   10312   10311     667     649   10386    3943+
+           2610    3942
CQUAD8      1280       1   10311   10310     685     667   10387    3944+
+           2645    3943
CQUAD8      1281       1   10310   10309     703     685   10388    3945+
+           2680    3944
CQUAD8      1282       1   10309   10308     721     703   10389    3946+
+           2715    3945
CQUAD8      1283       1   10308   10307     739     721   10390    3947+
+           2750    3946
CQUAD8      1284       1   10307   10306     757     739   10391    3948+
+           2785    3947
CQUAD8      1285       1   10306   10305     775     757   10392    3949+
+           2820    3948
CQUAD8      1286       1   10305   10304     793     775   10393    3950+
+           2855    3949
CQUAD8      1287       1   10304   10303     811     793   10394    3951+
+           2890    3950
CQUAD8      1288       1   10303   10302     829     811   10395    3952+
+           2925    3951
CQUAD8      1289       1   10302   10301     847     829   10396    3953+
+           2960    3952
CQUAD8      1290       1   10301   10300     865     847   10397    3954+
+           2995    3953
CQUAD8      1291       1   10300   10299     883     865   10398    3955+
+           3030    3954
CQUAD8      1292       1   10299   10298     901     883   10399    3956+
+           3065    3955
CQUAD8      1293       1   10298   10297     919     901   10400    3957+
+           3100    3956
CQUAD8      1294       1   10297   10296     937     919   10401    3958+
+           3135    3957
CQUAD8      1295       1   10296   10295     955     937   10402    3959+
+           3170    3958
CQUAD8      1296       1   10295   10294     973     955   10403    3960+
+           3205    3959
CQUAD8      1297       1   10294   10293     991     973   10404    3961+
+           3240    3960
CQUAD8      1298       1   10293   10292    1009     991   10405    3962+
+           3275    3961
CQUAD8      1299       1   10292   10291    1027    1009   10406    3963+
+           3310    3962
CQUAD8      1300       1   10291   10290    1045    1027   10407    3964+
+           3345    3963
CQUAD8      1301       1   10290   10289    1063    1045   10408    3965+
+           3380    3964
CQUAD8      1302       1   10289   10288    1081    1063   10409    3966+
+           3415    3965
CQUAD8      1303       1   10288   10287    1099    1081   10410    3967+
+           3450    3966
CQUAD8      1304       1   10287   10286    1117    1099   10411    3968+
+           3485    3967
CQUAD8      1305       1   10286   10285    1135    1117   10412    3969+
+           3520    3968
CQUAD8      1306       1   10285   10284    1153    1135   10413    3970+
+           3555    3969
CQUAD8      1307       1   10284   10283    1171    1153   10414    3971+
+           3590    3970
CQUAD8      1308       1   10283   10282    1189    1171   10415    3972+
+           3625    3971
CQUAD8      1309       1   10282   10281    1207    1189   10416    3973+
+           3660    3972
CQUAD8      1310       1   10281   10280    1225    1207   10417    3974+
+           3695    3973
CQUAD8      1311       1   10280   10279    1243    1225   10418    3975+
+           3730    3974
CQUAD8      1312       1   10279   10278    1261    1243   10419    3976+
+           3765    3975
CQUAD8      1313       1   10278   10277    1279    1261   10420    3977+
+           3800    3976
CQUAD8      1314       1   10277   10276    1297    1279   10421    3978+
+           3835    3977
CQUAD8      1315       1   10276   10275    1315    1297   10422    3979+
+           3870    3978
CQUAD8      1316       1   10275   10813   10035    1315   10423   10053+
+           3980    3979
CQUAD8      1317       1    1315   10035   10036    1316    3980   10054+
+           3981    3871
CQUAD8      1318       1    1316   10036   10037    1317    3981   10055+
+           3982    3873
CQUAD8      1319       1    1317   10037   10038    1318    3982   10056+
+           3983    3875
CQUAD8      1320       1    1318   10038   10039    1319    3983   10057+
+           3984    3877
CQUAD8      1321       1    1319   10039   10040    1320    3984   10058+
+           3985    3879
CQUAD8      1322       1    1320   10040   10041    1321    3985   10059+
+           3986    3881
CQUAD8      1323       1    1321   10041   10042    1322    3986   10060+
+           3987    3883
CQUAD8      1324       1    1322   10042   10043    1323    3987   10061+
+           3988    3885
CQUAD8      1325       1    1323   10043   10044    1324    3988   10062+
+           3989    3887
CQUAD8      1326       1    1324   10044   10045    1325    3989   10063+
+           3990    3889
CQUAD8      1327       1    1325   10045   10046    1326    3990   10064+
+           3991    3891
CQUAD8      1328       1    1326   10046   10047    1327    3991   10065+
+           3992    3893
CQUAD8      1329       1    1327   10047   10048    1328    3992   10066+
+           3993    3895
CQUAD8      1330       1    1328   10048   10049    1329    3993   10067+
+           3994    3897
CQUAD8      1331       1    1329   10049   10050    1330    3994   10068+
+           3995    3899
CQUAD8      1332       1    1330   10050   10051    1331    3995   10069+
+           3996    3901
CQUAD8      1333       1    1331   10051   10052    1332    3996   10070+
+           3997    3903
CQUAD8      1334       1    1332   10052   10814   10126    3997   10071+
+          10200    3998
CQUAD8      1335       1    1314    1332   10126   10127    3904    3998+
+          10201    3999
CQUAD8      1336       1    1296    1314   10127   10128    3869    3999+
+          10202    4000
CQUAD8      1337       1    1278    1296   10128   10129    3834    4000+
+          10203    4001
CQUAD8      1338       1    1260    1278   10129   10130    3799    4001+
+          10204    4002
CQUAD8      1339       1    1242    1260   10130   10131    3764    4002+
+          10205    4003
CQUAD8      1340       1    1224    1242   10131   10132    3729    4003+
+          10206    4004
CQUAD8      1341       1    1206    1224   10132   10133    3694    4004+
+          10207    4005
CQUAD8      1342       1    1188    1206   10133   10134    3659    4005+
+          10208    4006
CQUAD8      1343       1    1170    1188   10134   10135    3624    4006+
+          10209    4007
CQUAD8      1344       1    1152    1170   10135   10136    3589    4007+
+          10210    4008
CQUAD8      1345       1    1134    1152   10136   10137    3554    4008+
+          10211    4009
CQUAD8      1346       1    1116    1134   10137   10138    3519    4009+
+          10212    4010
CQUAD8      1347       1    1098    1116   10138   10139    3484    4010+
+          10213    4011
CQUAD8      1348       1    1080    1098   10139   10140    3449    4011+
+          10214    4012
CQUAD8      1349       1    1062    1080   10140   10141    3414    4012+
+          10215    4013
CQUAD8      1350       1    1044    1062   10141   10142    3379    4013+
+          10216    4014
CQUAD8      1351       1    1026    1044   10142   10143    3344    4014+
+          10217    4015
CQUAD8      1352       1    1008    1026   10143   10144    3309    4015+
+          10218    4016
CQUAD8      1353       1     990    1008   10144   10145    3274    4016+
+          10219    4017
CQUAD8      1354       1     972     990   10145   10146    3239    4017+
+          10220    4018
CQUAD8      1355       1     954     972   10146   10147    3204    4018+
+          10221    4019
CQUAD8      1356       1     936     954   10147   10148    3169    4019+
+          10222    4020
CQUAD8      1357       1     918     936   10148   10149    3134    4020+
+          10223    4021
CQUAD8      1358       1     900     918   10149   10150    3099    4021+
+          10224    4022
CQUAD8      1359       1     882     900   10150   10151    3064    4022+
+          10225    4023
CQUAD8      1360       1     864     882   10151   10152    3029    4023+
+          10226    4024
CQUAD8      1361       1     846     864   10152   10153    2994    4024+
+          10227    4025
CQUAD8      1362       1     828     846   10153   10154    2959    4025+
+          10228    4026
CQUAD8      1363       1     810     828   10154   10155    2924    4026+
+          10229    4027
CQUAD8      1364       1     792     810   10155   10156    2889    4027+
+          10230    4028
CQUAD8      1365       1     774     792   10156   10157    2854    4028+
+          10231    4029
CQUAD8      1366       1     756     774   10157   10158    2819    4029+
+          10232    4030
CQUAD8      1367       1     738     756   10158   10159    2784    4030+
+          10233    4031
CQUAD8      1368       1     720     738   10159   10160    2749    4031+
+          10234    4032
CQUAD8      1369       1     702     720   10160   10161    2714    4032+
+          10235    4033
CQUAD8      1370       1     684     702   10161   10162    2679    4033+
+          10236    4034
CQUAD8      1371       1     666     684   10162   10163    2644    4034+
+          10237    4035
CQUAD8      1372       1     648     666   10163   10164    2609    4035+
+          10238    4036
CQUAD8      1373       1     630     648   10164   10165    2574    4036+
+          10239    4037
CQUAD8      1374       1     612     630   10165   10166    2539    4037+
+          10240    4038
CQUAD8      1375       1     594     612   10166   10167    2504    4038+
+          10241    4039
CQUAD8      1376       1     576     594   10167   10168    2469    4039+
+          10242    4040
CQUAD8      1377       1     558     576   10168   10169    2434    4040+
+          10243    4041
CQUAD8      1378       1     540     558   10169   10170    2399    4041+
+          10244    4042
CQUAD8      1379       1     522     540   10170   10171    2364    4042+
+          10245    4043
CQUAD8      1380       1     504     522   10171   10172    2329    4043+
+          10246    4044
CQUAD8      1381       1     486     504   10172   10173    2294    4044+
+          10247    4045
CQUAD8      1382       1     468     486   10173   10174    2259    4045+
+          10248    4046
CQUAD8      1383       1     450     468   10174   10175    2224    4046+
+          10249    4047
CQUAD8      1384       1     432     450   10175   10176    2189    4047+
+          10250    4048
CQUAD8      1385       1     414     432   10176   10177    2154    4048+
+          10251    4049
CQUAD8      1386       1     396     414   10177   10178    2119    4049+
+          10252    4050
CQUAD8      1387       1     378     396   10178   10179    2084    4050+
+          10253    4051
CQUAD8      1388       1     360     378   10179   10180    2049    4051+
+          10254    4052
CQUAD8      1389       1     342     360   10180   10181    2014    4052+
+          10255    4053
CQUAD8      1390       1     324     342   10181   10182    1979    4053+
+          10256    4054
CQUAD8      1391       1     306     324   10182   10183    1944    4054+
+          10257    4055
CQUAD8      1392       1     288     306   10183   10184    1909    4055+
+          10258    4056
CQUAD8      1393       1     270     288   10184   10185    1874    4056+
+          10259    4057
CQUAD8      1394       1     252     270   10185   10186    1839    4057+
+          10260    4058
CQUAD8      1395       1     234     252   10186   10187    1804    4058+
+          10261    4059
CQUAD8      1396       1     216     234   10187   10188    1769    4059+
+          10262    4060
CQUAD8      1397       1     198     216   10188   10189    1734    4060+
+          10263    4061
CQUAD8      1398       1     180     198   10189   10190    1699    4061+
+          10264    4062
CQUAD8      1399       1     162     180   10190   10191    1664    4062+
+          10265    4063
CQUAD8      1400       1     144     162   10191   10192    1629    4063+
+          10266    4064
CQUAD8      1401       1     126     144   10192   10193    1594    4064+
+          10267    4065
CQUAD8      1402       1     108     126   10193   10194    1559    4065+
+          10268    4066
CQUAD8      1403       1      90     108   10194   10195    1524    4066+
+          10269    4067
CQUAD8      1404       1      72      90   10195   10196    1489    4067+
+          10270    4068
CQUAD8      1405       1      54      72   10196   10197    1454    4068+
+          10271    4069
CQUAD8      1406       1      36      54   10197   10198    1419    4069+
+          10272    4070
CQUAD8      1407       1      18      36   10198   10199    1383    4070+
+          10273    4071
CQUAD8      1408       1   10722      18   10199   10817    4072    4071+
+          10274   10741
CQUAD8      1409       1   10723      17      18   10722    4073    1384+
+           4072   10742
CQUAD8      1410       1   10724      16      17   10723    4074    1381+
+           4073   10743
CQUAD8      1411       1   10725      15      16   10724    4075    1378+
+           4074   10744
CQUAD8      1412       1   10726      14      15   10725    4076    1375+
+           4075   10745
CQUAD8      1413       1   10727      13      14   10726    4077    1372+
+           4076   10746
CQUAD8      1414       1   10728      12      13   10727    4078    1369+
+           4077   10747
CQUAD8      1415       1   10729      11      12   10728    4079    1366+
+           4078   10748
CQUAD8      1416       1   10730      10      11   10729    4080    1363+
+           4079   10749
CQUAD8      1417       1   10731       9      10   10730    4081    1360+
+           4080   10750
CQUAD8      1418       1   10732       8       9   10731    4082    1357+
+           4081   10751
CQUAD8      1419       1   10733       7       8   10732    4083    1354+
+           4082   10752
CQUAD8      1420       1   10734       6       7   10733    4084    1351+
+           4083   10753
CQUAD8      1421       1   10735       5       6   10734    4085    1348+
+           4084   10754
CQUAD8      1422       1   10736       4       5   10735    4086    1345+
+           4085   10755
CQUAD8      1423       1   10737       3       4   10736    4087    1342+
+           4086   10756
CQUAD8      1424       1   10738       2       3   10737    4088    1339+
+           4087   10757
CQUAD8      1425       1   10739       1       2   10738    3906    1336+
+           4088   10758
CQUAD8      1426       1    4089    4102    4103    4090    5051    5052+
+           5053    5054
CQUAD8      1427       1    4090    4103    4104    4091    5053    5055+
+           5056    5057
CQUAD8      1428       1    4091    4104    4105    4092    5056    5058+
+           5059    5060
CQUAD8      1429       1    4092    4105    4106    4093    5059    5061+
+           5062    5063
CQUAD8      1430       1    4093    4106    4107    4094    5062    5064+
+           5065    5066
CQUAD8      1431       1    4094    4107    4108    4095    5065    5067+
+           5068    5069
CQUAD8      1432       1    4095    4108    4109    4096    5068    5070+
+           5071    5072
CQUAD8      1433       1    4096    4109    4110    4097    5071    5073+
+           5074    5075
CQUAD8      1434       1    4097    4110    4111    4098    5074    5076+
+           5077    5078
CQUAD8      1435       1    4098    4111    4112    4099    5077    5079+
+           5080    5081
CQUAD8      1436       1    4099    4112    4113    4100    5080    5082+
+           5083    5084
CQUAD8      1437       1    4100    4113    4114    4101    5083    5085+
+           5086    5087
CQUAD8      1438       1    4102    4115    4116    4103    5088    5089+
+           5090    5052
CQUAD8      1439       1    4103    4116    4117    4104    5090    5091+
+           5092    5055
CQUAD8      1440       1    4104    4117    4118    4105    5092    5093+
+           5094    5058
CQUAD8      1441       1    4105    4118    4119    4106    5094    5095+
+           5096    5061
CQUAD8      1442       1    4106    4119    4120    4107    5096    5097+
+           5098    5064
CQUAD8      1443       1    4107    4120    4121    4108    5098    5099+
+           5100    5067
CQUAD8      1444       1    4108    4121    4122    4109    5100    5101+
+           5102    5070
CQUAD8      1445       1    4109    4122    4123    4110    5102    5103+
+           5104    5073
CQUAD8      1446       1    4110    4123    4124    4111    5104    5105+
+           5106    5076
CQUAD8      1447       1    4111    4124    4125    4112    5106    5107+
+           5108    5079
CQUAD8      1448       1    4112    4125    4126    4113    5108    5109+
+           5110    5082
CQUAD8      1449       1    4113    4126    4127    4114    5110    5111+
+           5112    5085
CQUAD8      1450       1    4115    4128    4129    4116    5113    5114+
+           5115    5089
CQUAD8      1451       1    4116    4129    4130    4117    5115    5116+
+           5117    5091
CQUAD8      1452       1    4117    4130    4131    4118    5117    5118+
+           5119    5093
CQUAD8      1453       1    4118    4131    4132    4119    5119    5120+
+           5121    5095
CQUAD8      1454       1    4119    4132    4133    4120    5121    5122+
+           5123    5097
CQUAD8      1455       1    4120    4133    4134    4121    5123    5124+
+           5125    5099
CQUAD8      1456       1    4121    4134    4135    4122    5125    5126+
+           5127    5101
CQUAD8      1457       1    4122    4135    4136    4123    5127    5128+
+           5129    5103
CQUAD8      1458       1    4123    4136    4137    4124    5129    5130+
+           5131    5105
CQUAD8      1459       1    4124    4137    4138    4125    5131    5132+
+           5133    5107
CQUAD8      1460       1    4125    4138    4139    4126    5133    5134+
+           5135    5109
CQUAD8      1461       1    4126    4139    4140    4127    5135    5136+
+           5137    5111
CQUAD8      1462       1    4128    4141    4142    4129    5138    5139+
+           5140    5114
CQUAD8      1463       1    4129    4142    4143    4130    5140    5141+
+           5142    5116
CQUAD8      1464       1    4130    4143    4144    4131    5142    5143+
+           5144    5118
CQUAD8      1465       1    4131    4144    4145    4132    5144    5145+
+           5146    5120
CQUAD8      1466       1    4132    4145    4146    4133    5146    5147+
+           5148    5122
CQUAD8      1467       1    4133    4146    4147    4134    5148    5149+
+           5150    5124
CQUAD8      1468       1    4134    4147    4148    4135    5150    5151+
+           5152    5126
CQUAD8      1469       1    4135    4148    4149    4136    5152    5153+
+           5154    5128
CQUAD8      1470       1    4136    4149    4150    4137    5154    5155+
+           5156    5130
CQUAD8      1471       1    4137    4150    4151    4138    5156    5157+
+           5158    5132
CQUAD8      1472       1    4138    4151    4152    4139    5158    5159+
+           5160    5134
CQUAD8      1473       1    4139    4152    4153    4140    5160    5161+
+           5162    5136
CQUAD8      1474       1    4141    4154    4155    4142    5163    5164+
+           5165    5139
CQUAD8      1475       1    4142    4155    4156    4143    5165    5166+
+           5167    5141
CQUAD8      1476       1    4143    4156    4157    4144    5167    5168+
+           5169    5143
CQUAD8      1477       1    4144    4157    4158    4145    5169    5170+
+           5171    5145
CQUAD8      1478       1    4145    4158    4159    4146    5171    5172+
+           5173    5147
CQUAD8      1479       1    4146    4159    4160    4147    5173    5174+
+           5175    5149
CQUAD8      1480       1    4147    4160    4161    4148    5175    5176+
+           5177    5151
CQUAD8      1481       1    4148    4161    4162    4149    5177    5178+
+           5179    5153
CQUAD8      1482       1    4149    4162    4163    4150    5179    5180+
+           5181    5155
CQUAD8      1483       1    4150    4163    4164    4151    5181    5182+
+           5183    5157
CQUAD8      1484       1    4151    4164    4165    4152    5183    5184+
+           5185    5159
CQUAD8      1485       1    4152    4165    4166    4153    5185    5186+
+           5187    5161
CQUAD8      1486       1    4154    4167    4168    4155    5188    5189+
+           5190    5164
CQUAD8      1487       1    4155    4168    4169    4156    5190    5191+
+           5192    5166
CQUAD8      1488       1    4156    4169    4170    4157    5192    5193+
+           5194    5168
CQUAD8      1489       1    4157    4170    4171    4158    5194    5195+
+           5196    5170
CQUAD8      1490       1    4158    4171    4172    4159    5196    5197+
+           5198    5172
CQUAD8      1491       1    4159    4172    4173    4160    5198    5199+
+           5200    5174
CQUAD8      1492       1    4160    4173    4174    4161    5200    5201+
+           5202    5176
CQUAD8      1493       1    4161    4174    4175    4162    5202    5203+
+           5204    5178
CQUAD8      1494       1    4162    4175    4176    4163    5204    5205+
+           5206    5180
CQUAD8      1495       1    4163    4176    4177    4164    5206    5207+
+           5208    5182
CQUAD8      1496       1    4164    4177    4178    4165    5208    5209+
+           5210    5184
CQUAD8      1497       1    4165    4178    4179    4166    5210    5211+
+           5212    5186
CQUAD8      1498       1    4167    4180    4181    4168    5213    5214+
+           5215    5189
CQUAD8      1499       1    4168    4181    4182    4169    5215    5216+
+           5217    5191
CQUAD8      1500       1    4169    4182    4183    4170    5217    5218+
+           5219    5193
CQUAD8      1501       1    4170    4183    4184    4171    5219    5220+
+           5221    5195
CQUAD8      1502       1    4171    4184    4185    4172    5221    5222+
+           5223    5197
CQUAD8      1503       1    4172    4185    4186    4173    5223    5224+
+           5225    5199
CQUAD8      1504       1    4173    4186    4187    4174    5225    5226+
+           5227    5201
CQUAD8      1505       1    4174    4187    4188    4175    5227    5228+
+           5229    5203
CQUAD8      1506       1    4175    4188    4189    4176    5229    5230+
+           5231    5205
CQUAD8      1507       1    4176    4189    4190    4177    5231    5232+
+           5233    5207
CQUAD8      1508       1    4177    4190    4191    4178    5233    5234+
+           5235    5209
CQUAD8      1509       1    4178    4191    4192    4179    5235    5236+
+           5237    5211
CQUAD8      1510       1    4180    4193    4194    4181    5238    5239+
+           5240    5214
CQUAD8      1511       1    4181    4194    4195    4182    5240    5241+
+           5242    5216
CQUAD8      1512       1    4182    4195    4196    4183    5242    5243+
+           5244    5218
CQUAD8      1513       1    4183    4196    4197    4184    5244    5245+
+           5246    5220
CQUAD8      1514       1    4184    4197    4198    4185    5246    5247+
+           5248    5222
CQUAD8      1515       1    4185    4198    4199    4186    5248    5249+
+           5250    5224
CQUAD8      1516       1    4186    4199    4200    4187    5250    5251+
+           5252    5226
CQUAD8      1517       1    4187    4200    4201    4188    5252    5253+
+           5254    5228
CQUAD8      1518       1    4188    4201    4202    4189    5254    5255+
+           5256    5230
CQUAD8      1519       1    4189    4202    4203    4190    5256    5257+
+           5258    5232
CQUAD8      1520       1    4190    4203    4204    4191    5258    5259+
+           5260    5234
CQUAD8      1521       1    4191    4204    4205    4192    5260    5261+
+           5262    5236
CQUAD8      1522       1    4193    4206    4207    4194    5263    5264+
+           5265    5239
CQUAD8      1523       1    4194    4207    4208    4195    5265    5266+
+           5267    5241
CQUAD8      1524       1    4195    4208    4209    4196    5267    5268+
+           5269    5243
CQUAD8      1525       1    4196    4209    4210    4197    5269    5270+
+           5271    5245
CQUAD8      1526       1    4197    4210    4211    4198    5271    5272+
+           5273    5247
CQUAD8      1527       1    4198    4211    4212    4199    5273    5274+
+           5275    5249
CQUAD8      1528       1    4199    4212    4213    4200    5275    5276+
+           5277    5251
CQUAD8      1529       1    4200    4213    4214    4201    5277    5278+
+           5279    5253
CQUAD8      1530       1    4201    4214    4215    4202    5279    5280+
+           5281    5255
CQUAD8      1531       1    4202    4215    4216    4203    5281    5282+
+           5283    5257
CQUAD8      1532       1    4203    4216    4217    4204    5283    5284+
+           5285    5259
CQUAD8      1533       1    4204    4217    4218    4205    5285    5286+
+           5287    5261
CQUAD8      1534       1    4206    4219    4220    4207    5288    5289+
+           5290    5264
CQUAD8      1535       1    4207    4220    4221    4208    5290    5291+
+           5292    5266
CQUAD8      1536       1    4208    4221    4222    4209    5292    5293+
+           5294    5268
CQUAD8      1537       1    4209    4222    4223    4210    5294    5295+
+           5296    5270
CQUAD8      1538       1    4210    4223    4224    4211    5296    5297+
+           5298    5272
CQUAD8      1539       1    4211    4224    4225    4212    5298    5299+
+           5300    5274
CQUAD8      1540       1    4212    4225    4226    4213    5300    5301+
+           5302    5276
CQUAD8      1541       1    4213    4226    4227    4214    5302    5303+
+           5304    5278
CQUAD8      1542       1    4214    4227    4228    4215    5304    5305+
+           5306    5280
CQUAD8      1543       1    4215    4228    4229    4216    5306    5307+
+           5308    5282
CQUAD8      1544       1    4216    4229    4230    4217    5308    5309+
+           5310    5284
CQUAD8      1545       1    4217    4230    4231    4218    5310    5311+
+           5312    5286
CQUAD8      1546       1    4219    4232    4233    4220    5313    5314+
+           5315    5289
CQUAD8      1547       1    4220    4233    4234    4221    5315    5316+
+           5317    5291
CQUAD8      1548       1    4221    4234    4235    4222    5317    5318+
+           5319    5293
CQUAD8      1549       1    4222    4235    4236    4223    5319    5320+
+           5321    5295
CQUAD8      1550       1    4223    4236    4237    4224    5321    5322+
+           5323    5297
CQUAD8      1551       1    4224    4237    4238    4225    5323    5324+
+           5325    5299
CQUAD8      1552       1    4225    4238    4239    4226    5325    5326+
+           5327    5301
CQUAD8      1553       1    4226    4239    4240    4227    5327    5328+
+           5329    5303
CQUAD8      1554       1    4227    4240    4241    4228    5329    5330+
+           5331    5305
CQUAD8      1555       1    4228    4241    4242    4229    5331    5332+
+           5333    5307
CQUAD8      1556       1    4229    4242    4243    4230    5333    5334+
+           5335    5309
CQUAD8      1557       1    4230    4243    4244    4231    5335    5336+
+           5337    5311
CQUAD8      1558       1    4232    4245    4246    4233    5338    5339+
+           5340    5314
CQUAD8      1559       1    4233    4246    4247    4234    5340    5341+
+           5342    5316
CQUAD8      1560       1    4234    4247    4248    4235    5342    5343+
+           5344    5318
CQUAD8      1561       1    4235    4248    4249    4236    5344    5345+
+           5346    5320
CQUAD8      1562       1    4236    4249    4250    4237    5346    5347+
+           5348    5322
CQUAD8      1563       1    4237    4250    4251    4238    5348    5349+
+           5350    5324
CQUAD8      1564       1    4238    4251    4252    4239    5350    5351+
+           5352    5326
CQUAD8      1565       1    4239    4252    4253    4240    5352    5353+
+           5354    5328
CQUAD8      1566       1    4240    4253    4254    4241    5354    5355+
+           5356    5330
CQUAD8      1567       1    4241    4254    4255    4242    5356    5357+
+           5358    5332
CQUAD8      1568       1    4242    4255    4256    4243    5358    5359+
+           5360    5334
CQUAD8      1569       1    4243    4256    4257    4244    5360    5361+
+           5362    5336
CQUAD8      1570       1    4245    4258    4259    4246    5363    5364+
+           5365    5339
CQUAD8      1571       1    4246    4259    4260    4247    5365    5366+
+           5367    5341
CQUAD8      1572       1    4247    4260    4261    4248    5367    5368+
+           5369    5343
CQUAD8      1573       1    4248    4261    4262    4249    5369    5370+
+           5371    5345
CQUAD8      1574       1    4249    4262    4263    4250    5371    5372+
+           5373    5347
CQUAD8      1575       1    4250    4263    4264    4251    5373    5374+
+           5375    5349
CQUAD8      1576       1    4251    4264    4265    4252    5375    5376+
+           5377    5351
CQUAD8      1577       1    4252    4265    4266    4253    5377    5378+
+           5379    5353
CQUAD8      1578       1    4253    4266    4267    4254    5379    5380+
+           5381    5355
CQUAD8      1579       1    4254    4267    4268    4255    5381    5382+
+           5383    5357
CQUAD8      1580       1    4255    4268    4269    4256    5383    5384+
+           5385    5359
CQUAD8      1581       1    4256    4269    4270    4257    5385    5386+
+           5387    5361
CQUAD8      1582       1    4258    4271    4272    4259    5388    5389+
+           5390    5364
CQUAD8      1583       1    4259    4272    4273    4260    5390    5391+
+           5392    5366
CQUAD8      1584       1    4260    4273    4274    4261    5392    5393+
+           5394    5368
CQUAD8      1585       1    4261    4274    4275    4262    5394    5395+
+           5396    5370
CQUAD8      1586       1    4262    4275    4276    4263    5396    5397+
+           5398    5372
CQUAD8      1587       1    4263    4276    4277    4264    5398    5399+
+           5400    5374
CQUAD8      1588       1    4264    4277    4278    4265    5400    5401+
+           5402    5376
CQUAD8      1589       1    4265    4278    4279    4266    5402    5403+
+           5404    5378
CQUAD8      1590       1    4266    4279    4280    4267    5404    5405+
+           5406    5380
CQUAD8      1591       1    4267    4280    4281    4268    5406    5407+
+           5408    5382
CQUAD8      1592       1    4268    4281    4282    4269    5408    5409+
+           5410    5384
CQUAD8      1593       1    4269    4282    4283    4270    5410    5411+
+           5412    5386
CQUAD8      1594       1    4271    4284    4285    4272    5413    5414+
+           5415    5389
CQUAD8      1595       1    4272    4285    4286    4273    5415    5416+
+           5417    5391
CQUAD8      1596       1    4273    4286    4287    4274    5417    5418+
+           5419    5393
CQUAD8      1597       1    4274    4287    4288    4275    5419    5420+
+           5421    5395
CQUAD8      1598       1    4275    4288    4289    4276    5421    5422+
+           5423    5397
CQUAD8      1599       1    4276    4289    4290    4277    5423    5424+
+           5425    5399
CQUAD8      1600       1    4277    4290    4291    4278    5425    5426+
+           5427    5401
CQUAD8      1601       1    4278    4291    4292    4279    5427    5428+
+           5429    5403
CQUAD8      1602       1    4279    4292    4293    4280    5429    5430+
+           5431    5405
CQUAD8      1603       1    4280    4293    4294    4281    5431    5432+
+           5433    5407
CQUAD8      1604       1    4281    4294    4295    4282    5433    5434+
+           5435    5409
CQUAD8      1605       1    4282    4295    4296    4283    5435    5436+
+           5437    5411
CQUAD8      1606       1    4284    4297    4298    4285    5438    5439+
+           5440    5414
CQUAD8      1607       1    4285    4298    4299    4286    5440    5441+
+           5442    5416
CQUAD8      1608       1    4286    4299    4300    4287    5442    5443+
+           5444    5418
CQUAD8      1609       1    4287    4300    4301    4288    5444    5445+
+           5446    5420
CQUAD8      1610       1    4288    4301    4302    4289    5446    5447+
+           5448    5422
CQUAD8      1611       1    4289    4302    4303    4290    5448    5449+
+           5450    5424
CQUAD8      1612       1    4290    4303    4304    4291    5450    5451+
+           5452    5426
CQUAD8      1613       1    4291    4304    4305    4292    5452    5453+
+           5454    5428
CQUAD8      1614       1    4292    4305    4306    4293    5454    5455+
+           5456    5430
CQUAD8      1615       1    4293    4306    4307    4294    5456    5457+
+           5458    5432
CQUAD8      1616       1    4294    4307    4308    4295    5458    5459+
+           5460    5434
CQUAD8      1617       1    4295    4308    4309    4296    5460    5461+
+           5462    5436
CQUAD8      1618       1    4297    4310    4311    4298    5463    5464+
+           5465    5439
CQUAD8      1619       1    4298    4311    4312    4299    5465    5466+
+           5467    5441
CQUAD8      1620       1    4299    4312    4313    4300    5467    5468+
+           5469    5443
CQUAD8      1621       1    4300    4313    4314    4301    5469    5470+
+           5471    5445
CQUAD8      1622       1    4301    4314    4315    4302    5471    5472+
+           5473    5447
CQUAD8      1623       1    4302    4315    4316    4303    5473    5474+
+           5475    5449
CQUAD8      1624       1    4303    4316    4317    4304    5475    5476+
+           5477    5451
CQUAD8      1625       1    4304    4317    4318    4305    5477    5478+
+           5479    5453
CQUAD8      1626       1    4305    4318    4319    4306    5479    5480+
+           5481    5455
CQUAD8      1627       1    4306    4319    4320    4307    5481    5482+
+           5483    5457
CQUAD8      1628       1    4307    4320    4321    4308    5483    5484+
+           5485    5459
CQUAD8      1629       1    4308    4321    4322    4309    5485    5486+
+           5487    5461
CQUAD8      1630       1    4310    4323    4324    4311    5488    5489+
+           5490    5464
CQUAD8      1631       1    4311    4324    4325    4312    5490    5491+
+           5492    5466
CQUAD8      1632       1    4312    4325    4326    4313    5492    5493+
+           5494    5468
CQUAD8      1633       1    4313    4326    4327    4314    5494    5495+
+           5496    5470
CQUAD8      1634       1    4314    4327    4328    4315    5496    5497+
+           5498    5472
CQUAD8      1635       1    4315    4328    4329    4316    5498    5499+
+           5500    5474
CQUAD8      1636       1    4316    4329    4330    4317    5500    5501+
+           5502    5476
CQUAD8      1637       1    4317    4330    4331    4318    5502    5503+
+           5504    5478
CQUAD8      1638       1    4318    4331    4332    4319    5504    5505+
+           5506    5480
CQUAD8      1639       1    4319    4332    4333    4320    5506    5507+
+           5508    5482
CQUAD8      1640       1    4320    4333    4334    4321    5508    5509+
+           5510    5484
CQUAD8      1641       1    4321    4334    4335    4322    5510    5511+
+           5512    5486
CQUAD8      1642       1    4323    4336    4337    4324    5513    5514+
+           5515    5489
CQUAD8      1643       1    4324    4337    4338    4325    5515    5516+
+           5517    5491
CQUAD8      1644       1    4325    4338    4339    4326    5517    5518+
+           5519    5493
CQUAD8      1645       1    4326    4339    4340    4327    5519    5520+
+           5521    5495
CQUAD8      1646       1    4327    4340    4341    4328    5521    5522+
+           5523    5497
CQUAD8      1647       1    4328    4341    4342    4329    5523    5524+
+           5525    5499
CQUAD8      1648       1    4329    4342    4343    4330    5525    5526+
+           5527    5501
CQUAD8      1649       1    4330    4343    4344    4331    5527    5528+
+           5529    5503
CQUAD8      1650       1    4331    4344    4345    4332    5529    5530+
+           5531    5505
CQUAD8      1651       1    4332    4345    4346    4333    5531    5532+
+           5533    5507
CQUAD8      1652       1    4333    4346    4347    4334    5533    5534+
+           5535    5509
CQUAD8      1653       1    4334    4347    4348    4335    5535    5536+
+           5537    5511
CQUAD8      1654       1    4336    4349    4350    4337    5538    5539+
+           5540    5514
CQUAD8      1655       1    4337    4350    4351    4338    5540    5541+
+           5542    5516
CQUAD8      1656       1    4338    4351    4352    4339    5542    5543+
+           5544    5518
CQUAD8      1657       1    4339    4352    4353    4340    5544    5545+
+           5546    5520
CQUAD8      1658       1    4340    4353    4354    4341    5546    5547+
+           5548    5522
CQUAD8      1659       1    4341    4354    4355    4342    5548    5549+
+           5550    5524
CQUAD8      1660       1    4342    4355    4356    4343    5550    5551+
+           5552    5526
CQUAD8      1661       1    4343    4356    4357    4344    5552    5553+
+           5554    5528
CQUAD8      1662       1    4344    4357    4358    4345    5554    5555+
+           5556    5530
CQUAD8      1663       1    4345    4358    4359    4346    5556    5557+
+           5558    5532
CQUAD8      1664       1    4346    4359    4360    4347    5558    5559+
+           5560    5534
CQUAD8      1665       1    4347    4360    4361    4348    5560    5561+
+           5562    5536
CQUAD8      1666       1    4349    4362    4363    4350    5563    5564+
+           5565    5539
CQUAD8      1667       1    4350    4363    4364    4351    5565    5566+
+           5567    5541
CQUAD8      1668       1    4351    4364    4365    4352    5567    5568+
+           5569    5543
CQUAD8      1669       1    4352    4365    4366    4353    5569    5570+
+           5571    5545
CQUAD8      1670       1    4353    4366    4367    4354    5571    5572+
+           5573    5547
CQUAD8      1671       1    4354    4367    4368    4355    5573    5574+
+           5575    5549
CQUAD8      1672       1    4355    4368    4369    4356    5575    5576+
+           5577    5551
CQUAD8      1673       1    4356    4369    4370    4357    5577    5578+
+           5579    5553
CQUAD8      1674       1    4357    4370    4371    4358    5579    5580+
+           5581    5555
CQUAD8      1675       1    4358    4371    4372    4359    5581    5582+
+           5583    5557
CQUAD8      1676       1    4359    4372    4373    4360    5583    5584+
+           5585    5559
CQUAD8      1677       1    4360    4373    4374    4361    5585    5586+
+           5587    5561
CQUAD8      1678       1    4362    4375    4376    4363    5588    5589+
+           5590    5564
CQUAD8      1679       1    4363    4376    4377    4364    5590    5591+
+           5592    5566
CQUAD8      1680       1    4364    4377    4378    4365    5592    5593+
+           5594    5568
CQUAD8      1681       1    4365    4378    4379    4366    5594    5595+
+           5596    5570
CQUAD8      1682       1    4366    4379    4380    4367    5596    5597+
+           5598    5572
CQUAD8      1683       1    4367    4380    4381    4368    5598    5599+
+           5600    5574
CQUAD8      1684       1    4368    4381    4382    4369    5600    5601+
+           5602    5576
CQUAD8      1685       1    4369    4382    4383    4370    5602    5603+
+           5604    5578
CQUAD8      1686       1    4370    4383    4384    4371    5604    5605+
+           5606    5580
CQUAD8      1687       1    4371    4384    4385    4372    5606    5607+
+           5608    5582
CQUAD8      1688       1    4372    4385    4386    4373    5608    5609+
+           5610    5584
CQUAD8      1689       1    4373    4386    4387    4374    5610    5611+
+           5612    5586
CQUAD8      1690       1    4375    4388    4389    4376    5613    5614+
+           5615    5589
CQUAD8      1691       1    4376    4389    4390    4377    5615    5616+
+           5617    5591
CQUAD8      1692       1    4377    4390    4391    4378    5617    5618+
+           5619    5593
CQUAD8      1693       1    4378    4391    4392    4379    5619    5620+
+           5621    5595
CQUAD8      1694       1    4379    4392    4393    4380    5621    5622+
+           5623    5597
CQUAD8      1695       1    4380    4393    4394    4381    5623    5624+
+           5625    5599
CQUAD8      1696       1    4381    4394    4395    4382    5625    5626+
+           5627    5601
CQUAD8      1697       1    4382    4395    4396    4383    5627    5628+
+           5629    5603
CQUAD8      1698       1    4383    4396    4397    4384    5629    5630+
+           5631    5605
CQUAD8      1699       1    4384    4397    4398    4385    5631    5632+
+           5633    5607
CQUAD8      1700       1    4385    4398    4399    4386    5633    5634+
+           5635    5609
CQUAD8      1701       1    4386    4399    4400    4387    5635    5636+
+           5637    5611
CQUAD8      1702       1    4388    4401    4402    4389    5638    5639+
+           5640    5614
CQUAD8      1703       1    4389    4402    4403    4390    5640    5641+
+           5642    5616
CQUAD8      1704       1    4390    4403    4404    4391    5642    5643+
+           5644    5618
CQUAD8      1705       1    4391    4404    4405    4392    5644    5645+
+           5646    5620
CQUAD8      1706       1    4392    4405    4406    4393    5646    5647+
+           5648    5622
CQUAD8      1707       1    4393    4406    4407    4394    5648    5649+
+           5650    5624
CQUAD8      1708       1    4394    4407    4408    4395    5650    5651+
+           5652    5626
CQUAD8      1709       1    4395    4408    4409    4396    5652    5653+
+           5654    5628
CQUAD8      1710       1    4396    4409    4410    4397    5654    5655+
+           5656    5630
CQUAD8      1711       1    4397    4410    4411    4398    5656    5657+
+           5658    5632
CQUAD8      1712       1    4398    4411    4412    4399    5658    5659+
+           5660    5634
CQUAD8      1713       1    4399    4412    4413    4400    5660    5661+
+           5662    5636
CQUAD8      1714       1    4401    4414    4415    4402    5663    5664+
+           5665    5639
CQUAD8      1715       1    4402    4415    4416    4403    5665    5666+
+           5667    5641
CQUAD8      1716       1    4403    4416    4417    4404    5667    5668+
+           5669    5643
CQUAD8      1717       1    4404    4417    4418    4405    5669    5670+
+           5671    5645
CQUAD8      1718       1    4405    4418    4419    4406    5671    5672+
+           5673    5647
CQUAD8      1719       1    4406    4419    4420    4407    5673    5674+
+           5675    5649
CQUAD8      1720       1    4407    4420    4421    4408    5675    5676+
+           5677    5651
CQUAD8      1721       1    4408    4421    4422    4409    5677    5678+
+           5679    5653
CQUAD8      1722       1    4409    4422    4423    4410    5679    5680+
+           5681    5655
CQUAD8      1723       1    4410    4423    4424    4411    5681    5682+
+           5683    5657
CQUAD8      1724       1    4411    4424    4425    4412    5683    5684+
+           5685    5659
CQUAD8      1725       1    4412    4425    4426    4413    5685    5686+
+           5687    5661
CQUAD8      1726       1    4414    4427    4428    4415    5688    5689+
+           5690    5664
CQUAD8      1727       1    4415    4428    4429    4416    5690    5691+
+           5692    5666
CQUAD8      1728       1    4416    4429    4430    4417    5692    5693+
+           5694    5668
CQUAD8      1729       1    4417    4430    4431    4418    5694    5695+
+           5696    5670
CQUAD8      1730       1    4418    4431    4432    4419    5696    5697+
+           5698    5672
CQUAD8      1731       1    4419    4432    4433    4420    5698    5699+
+           5700    5674
CQUAD8      1732       1    4420    4433    4434    4421    5700    5701+
+           5702    5676
CQUAD8      1733       1    4421    4434    4435    4422    5702    5703+
+           5704    5678
CQUAD8      1734       1    4422    4435    4436    4423    5704    5705+
+           5706    5680
CQUAD8      1735       1    4423    4436    4437    4424    5706    5707+
+           5708    5682
CQUAD8      1736       1    4424    4437    4438    4425    5708    5709+
+           5710    5684
CQUAD8      1737       1    4425    4438    4439    4426    5710    5711+
+           5712    5686
CQUAD8      1738       1    4427    4440    4441    4428    5713    5714+
+           5715    5689
CQUAD8      1739       1    4428    4441    4442    4429    5715    5716+
+           5717    5691
CQUAD8      1740       1    4429    4442    4443    4430    5717    5718+
+           5719    5693
CQUAD8      1741       1    4430    4443    4444    4431    5719    5720+
+           5721    5695
CQUAD8      1742       1    4431    4444    4445    4432    5721    5722+
+           5723    5697
CQUAD8      1743       1    4432    4445    4446    4433    5723    5724+
+           5725    5699
CQUAD8      1744       1    4433    4446    4447    4434    5725    5726+
+           5727    5701
CQUAD8      1745       1    4434    4447    4448    4435    5727    5728+
+           5729    5703
CQUAD8      1746       1    4435    4448    4449    4436    5729    5730+
+           5731    5705
CQUAD8      1747       1    4436    4449    4450    4437    5731    5732+
+           5733    5707
CQUAD8      1748       1    4437    4450    4451    4438    5733    5734+
+           5735    5709
CQUAD8      1749       1    4438    4451    4452    4439    5735    5736+
+           5737    5711
CQUAD8      1750       1    4440    4453    4454    4441    5738    5739+
+           5740    5714
CQUAD8      1751       1    4441    4454    4455    4442    5740    5741+
+           5742    5716
CQUAD8      1752       1    4442    4455    4456    4443    5742    5743+
+           5744    5718
CQUAD8      1753       1    4443    4456    4457    4444    5744    5745+
+           5746    5720
CQUAD8      1754       1    4444    4457    4458    4445    5746    5747+
+           5748    5722
CQUAD8      1755       1    4445    4458    4459    4446    5748    5749+
+           5750    5724
CQUAD8      1756       1    4446    4459    4460    4447    5750    5751+
+           5752    5726
CQUAD8      1757       1    4447    4460    4461    4448    5752    5753+
+           5754    5728
CQUAD8      1758       1    4448    4461    4462    4449    5754    5755+
+           5756    5730
CQUAD8      1759       1    4449    4462    4463    4450    5756    5757+
+           5758    5732
CQUAD8      1760       1    4450    4463    4464    4451    5758    5759+
+           5760    5734
CQUAD8      1761       1    4451    4464    4465    4452    5760    5761+
+           5762    5736
CQUAD8      1762       1    4453    4466    4467    4454    5763    5764+
+           5765    5739
CQUAD8      1763       1    4454    4467    4468    4455    5765    5766+
+           5767    5741
CQUAD8      1764       1    4455    4468    4469    4456    5767    5768+
+           5769    5743
CQUAD8      1765       1    4456    4469    4470    4457    5769    5770+
+           5771    5745
CQUAD8      1766       1    4457    4470    4471    4458    5771    5772+
+           5773    5747
CQUAD8      1767       1    4458    4471    4472    4459    5773    5774+
+           5775    5749
CQUAD8      1768       1    4459    4472    4473    4460    5775    5776+
+           5777    5751
CQUAD8      1769       1    4460    4473    4474    4461    5777    5778+
+           5779    5753
CQUAD8      1770       1    4461    4474    4475    4462    5779    5780+
+           5781    5755
CQUAD8      1771       1    4462    4475    4476    4463    5781    5782+
+           5783    5757
CQUAD8      1772       1    4463    4476    4477    4464    5783    5784+
+           5785    5759
CQUAD8      1773       1    4464    4477    4478    4465    5785    5786+
+           5787    5761
CQUAD8      1774       1    4466    4479    4480    4467    5788    5789+
+           5790    5764
CQUAD8      1775       1    4467    4480    4481    4468    5790    5791+
+           5792    5766
CQUAD8      1776       1    4468    4481    4482    4469    5792    5793+
+           5794    5768
CQUAD8      1777       1    4469    4482    4483    4470    5794    5795+
+           5796    5770
CQUAD8      1778       1    4470    4483    4484    4471    5796    5797+
+           5798    5772
CQUAD8      1779       1    4471    4484    4485    4472    5798    5799+
+           5800    5774
CQUAD8      1780       1    4472    4485    4486    4473    5800    5801+
+           5802    5776
CQUAD8      1781       1    4473    4486    4487    4474    5802    5803+
+           5804    5778
CQUAD8      1782       1    4474    4487    4488    4475    5804    5805+
+           5806    5780
CQUAD8      1783       1    4475    4488    4489    4476    5806    5807+
+           5808    5782
CQUAD8      1784       1    4476    4489    4490    4477    5808    5809+
+           5810    5784
CQUAD8      1785       1    4477    4490    4491    4478    5810    5811+
+           5812    5786
CQUAD8      1786       1    4479    4492    4493    4480    5813    5814+
+           5815    5789
CQUAD8      1787       1    4480    4493    4494    4481    5815    5816+
+           5817    5791
CQUAD8      1788       1    4481    4494    4495    4482    5817    5818+
+           5819    5793
CQUAD8      1789       1    4482    4495    4496    4483    5819    5820+
+           5821    5795
CQUAD8      1790       1    4483    4496    4497    4484    5821    5822+
+           5823    5797
CQUAD8      1791       1    4484    4497    4498    4485    5823    5824+
+           5825    5799
CQUAD8      1792       1    4485    4498    4499    4486    5825    5826+
+           5827    5801
CQUAD8      1793       1    4486    4499    4500    4487    5827    5828+
+           5829    5803
CQUAD8      1794       1    4487    4500    4501    4488    5829    5830+
+           5831    5805
CQUAD8      1795       1    4488    4501    4502    4489    5831    5832+
+           5833    5807
CQUAD8      1796       1    4489    4502    4503    4490    5833    5834+
+           5835    5809
CQUAD8      1797       1    4490    4503    4504    4491    5835    5836+
+           5837    5811
CQUAD8      1798       1    4492    4505    4506    4493    5838    5839+
+           5840    5814
CQUAD8      1799       1    4493    4506    4507    4494    5840    5841+
+           5842    5816
CQUAD8      1800       1    4494    4507    4508    4495    5842    5843+
+           5844    5818
CQUAD8      1801       1    4495    4508    4509    4496    5844    5845+
+           5846    5820
CQUAD8      1802       1    4496    4509    4510    4497    5846    5847+
+           5848    5822
CQUAD8      1803       1    4497    4510    4511    4498    5848    5849+
+           5850    5824
CQUAD8      1804       1    4498    4511    4512    4499    5850    5851+
+           5852    5826
CQUAD8      1805       1    4499    4512    4513    4500    5852    5853+
+           5854    5828
CQUAD8      1806       1    4500    4513    4514    4501    5854    5855+
+           5856    5830
CQUAD8      1807       1    4501    4514    4515    4502    5856    5857+
+           5858    5832
CQUAD8      1808       1    4502    4515    4516    4503    5858    5859+
+           5860    5834
CQUAD8      1809       1    4503    4516    4517    4504    5860    5861+
+           5862    5836
CQUAD8      1810       1    4505    4518    4519    4506    5863    5864+
+           5865    5839
CQUAD8      1811       1    4506    4519    4520    4507    5865    5866+
+           5867    5841
CQUAD8      1812       1    4507    4520    4521    4508    5867    5868+
+           5869    5843
CQUAD8      1813       1    4508    4521    4522    4509    5869    5870+
+           5871    5845
CQUAD8      1814       1    4509    4522    4523    4510    5871    5872+
+           5873    5847
CQUAD8      1815       1    4510    4523    4524    4511    5873    5874+
+           5875    5849
CQUAD8      1816       1    4511    4524    4525    4512    5875    5876+
+           5877    5851
CQUAD8      1817       1    4512    4525    4526    4513    5877    5878+
+           5879    5853
CQUAD8      1818       1    4513    4526    4527    4514    5879    5880+
+           5881    5855
CQUAD8      1819       1    4514    4527    4528    4515    5881    5882+
+           5883    5857
CQUAD8      1820       1    4515    4528    4529    4516    5883    5884+
+           5885    5859
CQUAD8      1821       1    4516    4529    4530    4517    5885    5886+
+           5887    5861
CQUAD8      1822       1    4518    4531    4532    4519    5888    5889+
+           5890    5864
CQUAD8      1823       1    4519    4532    4533    4520    5890    5891+
+           5892    5866
CQUAD8      1824       1    4520    4533    4534    4521    5892    5893+
+           5894    5868
CQUAD8      1825       1    4521    4534    4535    4522    5894    5895+
+           5896    5870
CQUAD8      1826       1    4522    4535    4536    4523    5896    5897+
+           5898    5872
CQUAD8      1827       1    4523    4536    4537    4524    5898    5899+
+           5900    5874
CQUAD8      1828       1    4524    4537    4538    4525    5900    5901+
+           5902    5876
CQUAD8      1829       1    4525    4538    4539    4526    5902    5903+
+           5904    5878
CQUAD8      1830       1    4526    4539    4540    4527    5904    5905+
+           5906    5880
CQUAD8      1831       1    4527    4540    4541    4528    5906    5907+
+           5908    5882
CQUAD8      1832       1    4528    4541    4542    4529    5908    5909+
+           5910    5884
CQUAD8      1833       1    4529    4542    4543    4530    5910    5911+
+           5912    5886
CQUAD8      1834       1    4531    4544    4545    4532    5913    5914+
+           5915    5889
CQUAD8      1835       1    4532    4545    4546    4533    5915    5916+
+           5917    5891
CQUAD8      1836       1    4533    4546    4547    4534    5917    5918+
+           5919    5893
CQUAD8      1837       1    4534    4547    4548    4535    5919    5920+
+           5921    5895
CQUAD8      1838       1    4535    4548    4549    4536    5921    5922+
+           5923    5897
CQUAD8      1839       1    4536    4549    4550    4537    5923    5924+
+           5925    5899
CQUAD8      1840       1    4537    4550    4551    4538    5925    5926+
+           5927    5901
CQUAD8      1841       1    4538    4551    4552    4539    5927    5928+
+           5929    5903
CQUAD8      1842       1    4539    4552    4553    4540    5929    5930+
+           5931    5905
CQUAD8      1843       1    4540    4553    4554    4541    5931    5932+
+           5933    5907
CQUAD8      1844       1    4541    4554    4555    4542    5933    5934+
+           5935    5909
CQUAD8      1845       1    4542    4555    4556    4543    5935    5936+
+           5937    5911
CQUAD8      1846       1    4544    4557    4558    4545    5938    5939+
+           5940    5914
CQUAD8      1847       1    4545    4558    4559    4546    5940    5941+
+           5942    5916
CQUAD8      1848       1    4546    4559    4560    4547    5942    5943+
+           5944    5918
CQUAD8      1849       1    4547    4560    4561    4548    5944    5945+
+           5946    5920
CQUAD8      1850       1    4548    4561    4562    4549    5946    5947+
+           5948    5922
CQUAD8      1851       1    4549    4562    4563    4550    5948    5949+
+           5950    5924
CQUAD8      1852       1    4550    4563    4564    4551    5950    5951+
+           5952    5926
CQUAD8      1853       1    4551    4564    4565    4552    5952    5953+
+           5954    5928
CQUAD8      1854       1    4552    4565    4566    4553    5954    5955+
+           5956    5930
CQUAD8      1855       1    4553    4566    4567    4554    5956    5957+
+           5958    5932
CQUAD8      1856       1    4554    4567    4568    4555    5958    5959+
+           5960    5934
CQUAD8      1857       1    4555    4568    4569    4556    5960    5961+
+           5962    5936
CQUAD8      1858       1    4557    4570    4571    4558    5963    5964+
+           5965    5939
CQUAD8      1859       1    4558    4571    4572    4559    5965    5966+
+           5967    5941
CQUAD8      1860       1    4559    4572    4573    4560    5967    5968+
+           5969    5943
CQUAD8      1861       1    4560    4573    4574    4561    5969    5970+
+           5971    5945
CQUAD8      1862       1    4561    4574    4575    4562    5971    5972+
+           5973    5947
CQUAD8      1863       1    4562    4575    4576    4563    5973    5974+
+           5975    5949
CQUAD8      1864       1    4563    4576    4577    4564    5975    5976+
+           5977    5951
CQUAD8      1865       1    4564    4577    4578    4565    5977    5978+
+           5979    5953
CQUAD8      1866       1    4565    4578    4579    4566    5979    5980+
+           5981    5955
CQUAD8      1867       1    4566    4579    4580    4567    5981    5982+
+           5983    5957
CQUAD8      1868       1    4567    4580    4581    4568    5983    5984+
+           5985    5959
CQUAD8      1869       1    4568    4581    4582    4569    5985    5986+
+           5987    5961
CQUAD8      1870       1    4570    4583    4584    4571    5988    5989+
+           5990    5964
CQUAD8      1871       1    4571    4584    4585    4572    5990    5991+
+           5992    5966
CQUAD8      1872       1    4572    4585    4586    4573    5992    5993+
+           5994    5968
CQUAD8      1873       1    4573    4586    4587    4574    5994    5995+
+           5996    5970
CQUAD8      1874       1    4574    4587    4588    4575    5996    5997+
+           5998    5972
CQUAD8      1875       1    4575    4588    4589    4576    5998    5999+
+           6000    5974
CQUAD8      1876       1    4576    4589    4590    4577    6000    6001+
+           6002    5976
CQUAD8      1877       1    4577    4590    4591    4578    6002    6003+
+           6004    5978
CQUAD8      1878       1    4578    4591    4592    4579    6004    6005+
+           6006    5980
CQUAD8      1879       1    4579    4592    4593    4580    6006    6007+
+           6008    5982
CQUAD8      1880       1    4580    4593    4594    4581    6008    6009+
+           6010    5984
CQUAD8      1881       1    4581    4594    4595    4582    6010    6011+
+           6012    5986
CQUAD8      1882       1    4583    4596    4597    4584    6013    6014+
+           6015    5989
CQUAD8      1883       1    4584    4597    4598    4585    6015    6016+
+           6017    5991
CQUAD8      1884       1    4585    4598    4599    4586    6017    6018+
+           6019    5993
CQUAD8      1885       1    4586    4599    4600    4587    6019    6020+
+           6021    5995
CQUAD8      1886       1    4587    4600    4601    4588    6021    6022+
+           6023    5997
CQUAD8      1887       1    4588    4601    4602    4589    6023    6024+
+           6025    5999
CQUAD8      1888       1    4589    4602    4603    4590    6025    6026+
+           6027    6001
CQUAD8      1889       1    4590    4603    4604    4591    6027    6028+
+           6029    6003
CQUAD8      1890       1    4591    4604    4605    4592    6029    6030+
+           6031    6005
CQUAD8      1891       1    4592    4605    4606    4593    6031    6032+
+           6033    6007
CQUAD8      1892       1    4593    4606    4607    4594    6033    6034+
+           6035    6009
CQUAD8      1893       1    4594    4607    4608    4595    6035    6036+
+           6037    6011
CQUAD8      1894       1    4596    4609    4610    4597    6038    6039+
+           6040    6014
CQUAD8      1895       1    4597    4610    4611    4598    6040    6041+
+           6042    6016
CQUAD8      1896       1    4598    4611    4612    4599    6042    6043+
+           6044    6018
CQUAD8      1897       1    4599    4612    4613    4600    6044    6045+
+           6046    6020
CQUAD8      1898       1    4600    4613    4614    4601    6046    6047+
+           6048    6022
CQUAD8      1899       1    4601    4614    4615    4602    6048    6049+
+           6050    6024
CQUAD8      1900       1    4602    4615    4616    4603    6050    6051+
+           6052    6026
CQUAD8      1901       1    4603    4616    4617    4604    6052    6053+
+           6054    6028
CQUAD8      1902       1    4604    4617    4618    4605    6054    6055+
+           6056    6030
CQUAD8      1903       1    4605    4618    4619    4606    6056    6057+
+           6058    6032
CQUAD8      1904       1    4606    4619    4620    4607    6058    6059+
+           6060    6034
CQUAD8      1905       1    4607    4620    4621    4608    6060    6061+
+           6062    6036
CQUAD8      1906       1    4609    4622    4623    4610    6063    6064+
+           6065    6039
CQUAD8      1907       1    4610    4623    4624    4611    6065    6066+
+           6067    6041
CQUAD8      1908       1    4611    4624    4625    4612    6067    6068+
+           6069    6043
CQUAD8      1909       1    4612    4625    4626    4613    6069    6070+
+           6071    6045
CQUAD8      1910       1    4613    4626    4627    4614    6071    6072+
+           6073    6047
CQUAD8      1911       1    4614    4627    4628    4615    6073    6074+
+           6075    6049
CQUAD8      1912       1    4615    4628    4629    4616    6075    6076+
+           6077    6051
CQUAD8      1913       1    4616    4629    4630    4617    6077    6078+
+           6079    6053
CQUAD8      1914       1    4617    4630    4631    4618    6079    6080+
+           6081    6055
CQUAD8      1915       1    4618    4631    4632    4619    6081    6082+
+           6083    6057
CQUAD8      1916       1    4619    4632    4633    4620    6083    6084+
+           6085    6059
CQUAD8      1917       1    4620    4633    4634    4621    6085    6086+
+           6087    6061
CQUAD8      1918       1    4622    4635    4636    4623    6088    6089+
+           6090    6064
CQUAD8      1919       1    4623    4636    4637    4624    6090    6091+
+           6092    6066
CQUAD8      1920       1    4624    4637    4638    4625    6092    6093+
+           6094    6068
CQUAD8      1921       1    4625    4638    4639    4626    6094    6095+
+           6096    6070
CQUAD8      1922       1    4626    4639    4640    4627    6096    6097+
+           6098    6072
CQUAD8      1923       1    4627    4640    4641    4628    6098    6099+
+           6100    6074
CQUAD8      1924       1    4628    4641    4642    4629    6100    6101+
+           6102    6076
CQUAD8      1925       1    4629    4642    4643    4630    6102    6103+
+           6104    6078
CQUAD8      1926       1    4630    4643    4644    4631    6104    6105+
+           6106    6080
CQUAD8      1927       1    4631    4644    4645    4632    6106    6107+
+           6108    6082
CQUAD8      1928       1    4632    4645    4646    4633    6108    6109+
+           6110    6084
CQUAD8      1929       1    4633    4646    4647    4634    6110    6111+
+           6112    6086
CQUAD8      1930       1    4635    4648    4649    4636    6113    6114+
+           6115    6089
CQUAD8      1931       1    4636    4649    4650    4637    6115    6116+
+           6117    6091
CQUAD8      1932       1    4637    4650    4651    4638    6117    6118+
+           6119    6093
CQUAD8      1933       1    4638    4651    4652    4639    6119    6120+
+           6121    6095
CQUAD8      1934       1    4639    4652    4653    4640    6121    6122+
+           6123    6097
CQUAD8      1935       1    4640    4653    4654    4641    6123    6124+
+           6125    6099
CQUAD8      1936       1    4641    4654    4655    4642    6125    6126+
+           6127    6101
CQUAD8      1937       1    4642    4655    4656    4643    6127    6128+
+           6129    6103
CQUAD8      1938       1    4643    4656    4657    4644    6129    6130+
+           6131    6105
CQUAD8      1939       1    4644    4657    4658    4645    6131    6132+
+           6133    6107
CQUAD8      1940       1    4645    4658    4659    4646    6133    6134+
+           6135    6109
CQUAD8      1941       1    4646    4659    4660    4647    6135    6136+
+           6137    6111
CQUAD8      1942       1    4648    4661    4662    4649    6138    6139+
+           6140    6114
CQUAD8      1943       1    4649    4662    4663    4650    6140    6141+
+           6142    6116
CQUAD8      1944       1    4650    4663    4664    4651    6142    6143+
+           6144    6118
CQUAD8      1945       1    4651    4664    4665    4652    6144    6145+
+           6146    6120
CQUAD8      1946       1    4652    4665    4666    4653    6146    6147+
+           6148    6122
CQUAD8      1947       1    4653    4666    4667    4654    6148    6149+
+           6150    6124
CQUAD8      1948       1    4654    4667    4668    4655    6150    6151+
+           6152    6126
CQUAD8      1949       1    4655    4668    4669    4656    6152    6153+
+           6154    6128
CQUAD8      1950       1    4656    4669    4670    4657    6154    6155+
+           6156    6130
CQUAD8      1951       1    4657    4670    4671    4658    6156    6157+
+           6158    6132
CQUAD8      1952       1    4658    4671    4672    4659    6158    6159+
+           6160    6134
CQUAD8      1953       1    4659    4672    4673    4660    6160    6161+
+           6162    6136
CQUAD8      1954       1    4661    4674    4675    4662    6163    6164+
+           6165    6139
CQUAD8      1955       1    4662    4675    4676    4663    6165    6166+
+           6167    6141
CQUAD8      1956       1    4663    4676    4677    4664    6167    6168+
+           6169    6143
CQUAD8      1957       1    4664    4677    4678    4665    6169    6170+
+           6171    6145
CQUAD8      1958       1    4665    4678    4679    4666    6171    6172+
+           6173    6147
CQUAD8      1959       1    4666    4679    4680    4667    6173    6174+
+           6175    6149
CQUAD8      1960       1    4667    4680    4681    4668    6175    6176+
+           6177    6151
CQUAD8      1961       1    4668    4681    4682    4669    6177    6178+
+           6179    6153
CQUAD8      1962       1    4669    4682    4683    4670    6179    6180+
+           6181    6155
CQUAD8      1963       1    4670    4683    4684    4671    6181    6182+
+           6183    6157
CQUAD8      1964       1    4671    4684    4685    4672    6183    6184+
+           6185    6159
CQUAD8      1965       1    4672    4685    4686    4673    6185    6186+
+           6187    6161
CQUAD8      1966       1    4674    4687    4688    4675    6188    6189+
+           6190    6164
CQUAD8      1967       1    4675    4688    4689    4676    6190    6191+
+           6192    6166
CQUAD8      1968       1    4676    4689    4690    4677    6192    6193+
+           6194    6168
CQUAD8      1969       1    4677    4690    4691    4678    6194    6195+
+           6196    6170
CQUAD8      1970       1    4678    4691    4692    4679    6196    6197+
+           6198    6172
CQUAD8      1971       1    4679    4692    4693    4680    6198    6199+
+           6200    6174
CQUAD8      1972       1    4680    4693    4694    4681    6200    6201+
+           6202    6176
CQUAD8      1973       1    4681    4694    4695    4682    6202    6203+
+           6204    6178
CQUAD8      1974       1    4682    4695    4696    4683    6204    6205+
+           6206    6180
CQUAD8      1975       1    4683    4696    4697    4684    6206    6207+
+           6208    6182
CQUAD8      1976       1    4684    4697    4698    4685    6208    6209+
+           6210    6184
CQUAD8      1977       1    4685    4698    4699    4686    6210    6211+
+           6212    6186
CQUAD8      1978       1    4687    4700    4701    4688    6213    6214+
+           6215    6189
CQUAD8      1979       1    4688    4701    4702    4689    6215    6216+
+           6217    6191
CQUAD8      1980       1    4689    4702    4703    4690    6217    6218+
+           6219    6193
CQUAD8      1981       1    4690    4703    4704    4691    6219    6220+
+           6221    6195
CQUAD8      1982       1    4691    4704    4705    4692    6221    6222+
+           6223    6197
CQUAD8      1983       1    4692    4705    4706    4693    6223    6224+
+           6225    6199
CQUAD8      1984       1    4693    4706    4707    4694    6225    6226+
+           6227    6201
CQUAD8      1985       1    4694    4707    4708    4695    6227    6228+
+           6229    6203
CQUAD8      1986       1    4695    4708    4709    4696    6229    6230+
+           6231    6205
CQUAD8      1987       1    4696    4709    4710    4697    6231    6232+
+           6233    6207
CQUAD8      1988       1    4697    4710    4711    4698    6233    6234+
+           6235    6209
CQUAD8      1989       1    4698    4711    4712    4699    6235    6236+
+           6237    6211
CQUAD8      1990       1    4700    4713    4714    4701    6238    6239+
+           6240    6214
CQUAD8      1991       1    4701    4714    4715    4702    6240    6241+
+           6242    6216
CQUAD8      1992       1    4702    4715    4716    4703    6242    6243+
+           6244    6218
CQUAD8      1993       1    4703    4716    4717    4704    6244    6245+
+           6246    6220
CQUAD8      1994       1    4704    4717    4718    4705    6246    6247+
+           6248    6222
CQUAD8      1995       1    4705    4718    4719    4706    6248    6249+
+           6250    6224
CQUAD8      1996       1    4706    4719    4720    4707    6250    6251+
+           6252    6226
CQUAD8      1997       1    4707    4720    4721    4708    6252    6253+
+           6254    6228
CQUAD8      1998       1    4708    4721    4722    4709    6254    6255+
+           6256    6230
CQUAD8      1999       1    4709    4722    4723    4710    6256    6257+
+           6258    6232
CQUAD8      2000       1    4710    4723    4724    4711    6258    6259+
+           6260    6234
CQUAD8      2001       1    4711    4724    4725    4712    6260    6261+
+           6262    6236
CQUAD8      2002       1    4713    4726    4727    4714    6263    6264+
+           6265    6239
CQUAD8      2003       1    4714    4727    4728    4715    6265    6266+
+           6267    6241
CQUAD8      2004       1    4715    4728    4729    4716    6267    6268+
+           6269    6243
CQUAD8      2005       1    4716    4729    4730    4717    6269    6270+
+           6271    6245
CQUAD8      2006       1    4717    4730    4731    4718    6271    6272+
+           6273    6247
CQUAD8      2007       1    4718    4731    4732    4719    6273    6274+
+           6275    6249
CQUAD8      2008       1    4719    4732    4733    4720    6275    6276+
+           6277    6251
CQUAD8      2009       1    4720    4733    4734    4721    6277    6278+
+           6279    6253
CQUAD8      2010       1    4721    4734    4735    4722    6279    6280+
+           6281    6255
CQUAD8      2011       1    4722    4735    4736    4723    6281    6282+
+           6283    6257
CQUAD8      2012       1    4723    4736    4737    4724    6283    6284+
+           6285    6259
CQUAD8      2013       1    4724    4737    4738    4725    6285    6286+
+           6287    6261
CQUAD8      2014       1    4726    4739    4740    4727    6288    6289+
+           6290    6264
CQUAD8      2015       1    4727    4740    4741    4728    6290    6291+
+           6292    6266
CQUAD8      2016       1    4728    4741    4742    4729    6292    6293+
+           6294    6268
CQUAD8      2017       1    4729    4742    4743    4730    6294    6295+
+           6296    6270
CQUAD8      2018       1    4730    4743    4744    4731    6296    6297+
+           6298    6272
CQUAD8      2019       1    4731    4744    4745    4732    6298    6299+
+           6300    6274
CQUAD8      2020       1    4732    4745    4746    4733    6300    6301+
+           6302    6276
CQUAD8      2021       1    4733    4746    4747    4734    6302    6303+
+           6304    6278
CQUAD8      2022       1    4734    4747    4748    4735    6304    6305+
+           6306    6280
CQUAD8      2023       1    4735    4748    4749    4736    6306    6307+
+           6308    6282
CQUAD8      2024       1    4736    4749    4750    4737    6308    6309+
+           6310    6284
CQUAD8      2025       1    4737    4750    4751    4738    6310    6311+
+           6312    6286
CQUAD8      2026       1    4739    4752    4753    4740    6313    6314+
+           6315    6289
CQUAD8      2027       1    4740    4753    4754    4741    6315    6316+
+           6317    6291
CQUAD8      2028       1    4741    4754    4755    4742    6317    6318+
+           6319    6293
CQUAD8      2029       1    4742    4755    4756    4743    6319    6320+
+           6321    6295
CQUAD8      2030       1    4743    4756    4757    4744    6321    6322+
+           6323    6297
CQUAD8      2031       1    4744    4757    4758    4745    6323    6324+
+           6325    6299
CQUAD8      2032       1    4745    4758    4759    4746    6325    6326+
+           6327    6301
CQUAD8      2033       1    4746    4759    4760    4747    6327    6328+
+           6329    6303
CQUAD8      2034       1    4747    4760    4761    4748    6329    6330+
+           6331    6305
CQUAD8      2035       1    4748    4761    4762    4749    6331    6332+
+           6333    6307
CQUAD8      2036       1    4749    4762    4763    4750    6333    6334+
+           6335    6309
CQUAD8      2037       1    4750    4763    4764    4751    6335    6336+
+           6337    6311
CQUAD8      2038       1    4752    4765    4766    4753    6338    6339+
+           6340    6314
CQUAD8      2039       1    4753    4766    4767    4754    6340    6341+
+           6342    6316
CQUAD8      2040       1    4754    4767    4768    4755    6342    6343+
+           6344    6318
CQUAD8      2041       1    4755    4768    4769    4756    6344    6345+
+           6346    6320
CQUAD8      2042       1    4756    4769    4770    4757    6346    6347+
+           6348    6322
CQUAD8      2043       1    4757    4770    4771    4758    6348    6349+
+           6350    6324
CQUAD8      2044       1    4758    4771    4772    4759    6350    6351+
+           6352    6326
CQUAD8      2045       1    4759    4772    4773    4760    6352    6353+
+           6354    6328
CQUAD8      2046       1    4760    4773    4774    4761    6354    6355+
+           6356    6330
CQUAD8      2047       1    4761    4774    4775    4762    6356    6357+
+           6358    6332
CQUAD8      2048       1    4762    4775    4776    4763    6358    6359+
+           6360    6334
CQUAD8      2049       1    4763    4776    4777    4764    6360    6361+
+           6362    6336
CQUAD8      2050       1    4765    4778    4779    4766    6363    6364+
+           6365    6339
CQUAD8      2051       1    4766    4779    4780    4767    6365    6366+
+           6367    6341
CQUAD8      2052       1    4767    4780    4781    4768    6367    6368+
+           6369    6343
CQUAD8      2053       1    4768    4781    4782    4769    6369    6370+
+           6371    6345
CQUAD8      2054       1    4769    4782    4783    4770    6371    6372+
+           6373    6347
CQUAD8      2055       1    4770    4783    4784    4771    6373    6374+
+           6375    6349
CQUAD8      2056       1    4771    4784    4785    4772    6375    6376+
+           6377    6351
CQUAD8      2057       1    4772    4785    4786    4773    6377    6378+
+           6379    6353
CQUAD8      2058       1    4773    4786    4787    4774    6379    6380+
+           6381    6355
CQUAD8      2059       1    4774    4787    4788    4775    6381    6382+
+           6383    6357
CQUAD8      2060       1    4775    4788    4789    4776    6383    6384+
+           6385    6359
CQUAD8      2061       1    4776    4789    4790    4777    6385    6386+
+           6387    6361
CQUAD8      2062       1    4778    4791    4792    4779    6388    6389+
+           6390    6364
CQUAD8      2063       1    4779    4792    4793    4780    6390    6391+
+           6392    6366
CQUAD8      2064       1    4780    4793    4794    4781    6392    6393+
+           6394    6368
CQUAD8      2065       1    4781    4794    4795    4782    6394    6395+
+           6396    6370
CQUAD8      2066       1    4782    4795    4796    4783    6396    6397+
+           6398    6372
CQUAD8      2067       1    4783    4796    4797    4784    6398    6399+
+           6400    6374
CQUAD8      2068       1    4784    4797    4798    4785    6400    6401+
+           6402    6376
CQUAD8      2069       1    4785    4798    4799    4786    6402    6403+
+           6404    6378
CQUAD8      2070       1    4786    4799    4800    4787    6404    6405+
+           6406    6380
CQUAD8      2071       1    4787    4800    4801    4788    6406    6407+
+           6408    6382
CQUAD8      2072       1    4788    4801    4802    4789    6408    6409+
+           6410    6384
CQUAD8      2073       1    4789    4802    4803    4790    6410    6411+
+           6412    6386
CQUAD8      2074       1    4791    4804    4805    4792    6413    6414+
+           6415    6389
CQUAD8      2075       1    4792    4805    4806    4793    6415    6416+
+           6417    6391
CQUAD8      2076       1    4793    4806    4807    4794    6417    6418+
+           6419    6393
CQUAD8      2077       1    4794    4807    4808    4795    6419    6420+
+           6421    6395
CQUAD8      2078       1    4795    4808    4809    4796    6421    6422+
+           6423    6397
CQUAD8      2079       1    4796    4809    4810    4797    6423    6424+
+           6425    6399
CQUAD8      2080       1    4797    4810    4811    4798    6425    6426+
+           6427    6401
CQUAD8      2081       1    4798    4811    4812    4799    6427    6428+
+           6429    6403
CQUAD8      2082       1    4799    4812    4813    4800    6429    6430+
+           6431    6405
CQUAD8      2083       1    4800    4813    4814    4801    6431    6432+
+           6433    6407
CQUAD8      2084       1    4801    4814    4815    4802    6433    6434+
+           6435    6409
CQUAD8      2085       1    4802    4815    4816    4803    6435    6436+
+           6437    6411
CQUAD8      2086       1    4804    4817    4818    4805    6438    6439+
+           6440    6414
CQUAD8      2087       1    4805    4818    4819    4806    6440    6441+
+           6442    6416
CQUAD8      2088       1    4806    4819    4820    4807    6442    6443+
+           6444    6418
CQUAD8      2089       1    4807    4820    4821    4808    6444    6445+
+           6446    6420
CQUAD8      2090       1    4808    4821    4822    4809    6446    6447+
+           6448    6422
CQUAD8      2091       1    4809    4822    4823    4810    6448    6449+
+           6450    6424
CQUAD8      2092       1    4810    4823    4824    4811    6450    6451+
+           6452    6426
CQUAD8      2093       1    4811    4824    4825    4812    6452    6453+
+           6454    6428
CQUAD8      2094       1    4812    4825    4826    4813    6454    6455+
+           6456    6430
CQUAD8      2095       1    4813    4826    4827    4814    6456    6457+
+           6458    6432
CQUAD8      2096       1    4814    4827    4828    4815    6458    6459+
+           6460    6434
CQUAD8      2097       1    4815    4828    4829    4816    6460    6461+
+           6462    6436
CQUAD8      2098       1    4817    4830    4831    4818    6463    6464+
+           6465    6439
CQUAD8      2099       1    4818    4831    4832    4819    6465    6466+
+           6467    6441
CQUAD8      2100       1    4819    4832    4833    4820    6467    6468+
+           6469    6443
CQUAD8      2101       1    4820    4833    4834    4821    6469    6470+
+           6471    6445
CQUAD8      2102       1    4821    4834    4835    4822    6471    6472+
+           6473    6447
CQUAD8      2103       1    4822    4835    4836    4823    6473    6474+
+           6475    6449
CQUAD8      2104       1    4823    4836    4837    4824    6475    6476+
+           6477    6451
CQUAD8      2105       1    4824    4837    4838    4825    6477    6478+
+           6479    6453
CQUAD8      2106       1    4825    4838    4839    4826    6479    6480+
+           6481    6455
CQUAD8      2107       1    4826    4839    4840    4827    6481    6482+
+           6483    6457
CQUAD8      2108       1    4827    4840    4841    4828    6483    6484+
+           6485    6459
CQUAD8      2109       1    4828    4841    4842    4829    6485    6486+
+           6487    6461
CQUAD8      2110       1    4830    4843    4844    4831    6488    6489+
+           6490    6464
CQUAD8      2111       1    4831    4844    4845    4832    6490    6491+
+           6492    6466
CQUAD8      2112       1    4832    4845    4846    4833    6492    6493+
+           6494    6468
CQUAD8      2113       1    4833    4846    4847    4834    6494    6495+
+           6496    6470
CQUAD8      2114       1    4834    4847    4848    4835    6496    6497+
+           6498    6472
CQUAD8      2115       1    4835    4848    4849    4836    6498    6499+
+           6500    6474
CQUAD8      2116       1    4836    4849    4850    4837    6500    6501+
+           6502    6476
CQUAD8      2117       1    4837    4850    4851    4838    6502    6503+
+           6504    6478
CQUAD8      2118       1    4838    4851    4852    4839    6504    6505+
+           6506    6480
CQUAD8      2119       1    4839    4852    4853    4840    6506    6507+
+           6508    6482
CQUAD8      2120       1    4840    4853    4854    4841    6508    6509+
+           6510    6484
CQUAD8      2121       1    4841    4854    4855    4842    6510    6511+
+           6512    6486
CQUAD8      2122       1    4843    4856    4857    4844    6513    6514+
+           6515    6489
CQUAD8      2123       1    4844    4857    4858    4845    6515    6516+
+           6517    6491
CQUAD8      2124       1    4845    4858    4859    4846    6517    6518+
+           6519    6493
CQUAD8      2125       1    4846    4859    4860    4847    6519    6520+
+           6521    6495
CQUAD8      2126       1    4847    4860    4861    4848    6521    6522+
+           6523    6497
CQUAD8      2127       1    4848    4861    4862    4849    6523    6524+
+           6525    6499
CQUAD8      2128       1    4849    4862    4863    4850    6525    6526+
+           6527    6501
CQUAD8      2129       1    4850    4863    4864    4851    6527    6528+
+           6529    6503
CQUAD8      2130       1    4851    4864    4865    4852    6529    6530+
+           6531    6505
CQUAD8      2131       1    4852    4865    4866    4853    6531    6532+
+           6533    6507
CQUAD8      2132       1    4853    4866    4867    4854    6533    6534+
+           6535    6509
CQUAD8      2133       1    4854    4867    4868    4855    6535    6536+
+           6537    6511
CQUAD8      2134       1    4856    4869    4870    4857    6538    6539+
+           6540    6514
CQUAD8      2135       1    4857    4870    4871    4858    6540    6541+
+           6542    6516
CQUAD8      2136       1    4858    4871    4872    4859    6542    6543+
+           6544    6518
CQUAD8      2137       1    4859    4872    4873    4860    6544    6545+
+           6546    6520
CQUAD8      2138       1    4860    4873    4874    4861    6546    6547+
+           6548    6522
CQUAD8      2139       1    4861    4874    4875    4862    6548    6549+
+           6550    6524
CQUAD8      2140       1    4862    4875    4876    4863    6550    6551+
+           6552    6526
CQUAD8      2141       1    4863    4876    4877    4864    6552    6553+
+           6554    6528
CQUAD8      2142       1    4864    4877    4878    4865    6554    6555+
+           6556    6530
CQUAD8      2143       1    4865    4878    4879    4866    6556    6557+
+           6558    6532
CQUAD8      2144       1    4866    4879    4880    4867    6558    6559+
+           6560    6534
CQUAD8      2145       1    4867    4880    4881    4868    6560    6561+
+           6562    6536
CQUAD8      2146       1    4869    4882    4883    4870    6563    6564+
+           6565    6539
CQUAD8      2147       1    4870    4883    4884    4871    6565    6566+
+           6567    6541
CQUAD8      2148       1    4871    4884    4885    4872    6567    6568+
+           6569    6543
CQUAD8      2149       1    4872    4885    4886    4873    6569    6570+
+           6571    6545
CQUAD8      2150       1    4873    4886    4887    4874    6571    6572+
+           6573    6547
CQUAD8      2151       1    4874    4887    4888    4875    6573    6574+
+           6575    6549
CQUAD8      2152       1    4875    4888    4889    4876    6575    6576+
+           6577    6551
CQUAD8      2153       1    4876    4889    4890    4877    6577    6578+
+           6579    6553
CQUAD8      2154       1    4877    4890    4891    4878    6579    6580+
+           6581    6555
CQUAD8      2155       1    4878    4891    4892    4879    6581    6582+
+           6583    6557
CQUAD8      2156       1    4879    4892    4893    4880    6583    6584+
+           6585    6559
CQUAD8      2157       1    4880    4893    4894    4881    6585    6586+
+           6587    6561
CQUAD8      2158       1    4882    4895    4896    4883    6588    6589+
+           6590    6564
CQUAD8      2159       1    4883    4896    4897    4884    6590    6591+
+           6592    6566
CQUAD8      2160       1    4884    4897    4898    4885    6592    6593+
+           6594    6568
CQUAD8      2161       1    4885    4898    4899    4886    6594    6595+
+           6596    6570
CQUAD8      2162       1    4886    4899    4900    4887    6596    6597+
+           6598    6572
CQUAD8      2163       1    4887    4900    4901    4888    6598    6599+
+           6600    6574
CQUAD8      2164       1    4888    4901    4902    4889    6600    6601+
+           6602    6576
CQUAD8      2165       1    4889    4902    4903    4890    6602    6603+
+           6604    6578
CQUAD8      2166       1    4890    4903    4904    4891    6604    6605+
+           6606    6580
CQUAD8      2167       1    4891    4904    4905    4892    6606    6607+
+           6608    6582
CQUAD8      2168       1    4892    4905    4906    4893    6608    6609+
+           6610    6584
CQUAD8      2169       1    4893    4906    4907    4894    6610    6611+
+           6612    6586
CQUAD8      2170       1    4895    4908    4909    4896    6613    6614+
+           6615    6589
CQUAD8      2171       1    4896    4909    4910    4897    6615    6616+
+           6617    6591
CQUAD8      2172       1    4897    4910    4911    4898    6617    6618+
+           6619    6593
CQUAD8      2173       1    4898    4911    4912    4899    6619    6620+
+           6621    6595
CQUAD8      2174       1    4899    4912    4913    4900    6621    6622+
+           6623    6597
CQUAD8      2175       1    4900    4913    4914    4901    6623    6624+
+           6625    6599
CQUAD8      2176       1    4901    4914    4915    4902    6625    6626+
+           6627    6601
CQUAD8      2177       1    4902    4915    4916    4903    6627    6628+
+           6629    6603
CQUAD8      2178       1    4903    4916    4917    4904    6629    6630+
+           6631    6605
CQUAD8      2179       1    4904    4917    4918    4905    6631    6632+
+           6633    6607
CQUAD8      2180       1    4905    4918    4919    4906    6633    6634+
+           6635    6609
CQUAD8      2181       1    4906    4919    4920    4907    6635    6636+
+           6637    6611
CQUAD8      2182       1    4908    4921    4922    4909    6638    6639+
+           6640    6614
CQUAD8      2183       1    4909    4922    4923    4910    6640    6641+
+           6642    6616
CQUAD8      2184       1    4910    4923    4924    4911    6642    6643+
+           6644    6618
CQUAD8      2185       1    4911    4924    4925    4912    6644    6645+
+           6646    6620
CQUAD8      2186       1    4912    4925    4926    4913    6646    6647+
+           6648    6622
CQUAD8      2187       1    4913    4926    4927    4914    6648    6649+
+           6650    6624
CQUAD8      2188       1    4914    4927    4928    4915    6650    6651+
+           6652    6626
CQUAD8      2189       1    4915    4928    4929    4916    6652    6653+
+           6654    6628
CQUAD8      2190       1    4916    4929    4930    4917    6654    6655+
+           6656    6630
CQUAD8      2191       1    4917    4930    4931    4918    6656    6657+
+           6658    6632
CQUAD8      2192       1    4918    4931    4932    4919    6658    6659+
+           6660    6634
CQUAD8      2193       1    4919    4932    4933    4920    6660    6661+
+           6662    6636
CQUAD8      2194       1    4921    4934    4935    4922    6663    6664+
+           6665    6639
CQUAD8      2195       1    4922    4935    4936    4923    6665    6666+
+           6667    6641
CQUAD8      2196       1    4923    4936    4937    4924    6667    6668+
+           6669    6643
CQUAD8      2197       1    4924    4937    4938    4925    6669    6670+
+           6671    6645
CQUAD8      2198       1    4925    4938    4939    4926    6671    6672+
+           6673    6647
CQUAD8      2199       1    4926    4939    4940    4927    6673    6674+
+           6675    6649
CQUAD8      2200       1    4927    4940    4941    4928    6675    6676+
+           6677    6651
CQUAD8      2201       1    4928    4941    4942    4929    6677    6678+
+           6679    6653
CQUAD8      2202       1    4929    4942    4943    4930    6679    6680+
+           6681    6655
CQUAD8      2203       1    4930    4943    4944    4931    6681    6682+
+           6683    6657
CQUAD8      2204       1    4931    4944    4945    4932    6683    6684+
+           6685    6659
CQUAD8      2205       1    4932    4945    4946    4933    6685    6686+
+           6687    6661
CQUAD8      2206       1    4934    4947    4948    4935    6688    6689+
+           6690    6664
CQUAD8      2207       1    4935    4948    4949    4936    6690    6691+
+           6692    6666
CQUAD8      2208       1    4936    4949    4950    4937    6692    6693+
+           6694    6668
CQUAD8      2209       1    4937    4950    4951    4938    6694    6695+
+           6696    6670
CQUAD8      2210       1    4938    4951    4952    4939    6696    6697+
+           6698    6672
CQUAD8      2211       1    4939    4952    4953    4940    6698    6699+
+           6700    6674
CQUAD8      2212       1    4940    4953    4954    4941    6700    6701+
+           6702    6676
CQUAD8      2213       1    4941    4954    4955    4942    6702    6703+
+           6704    6678
CQUAD8      2214       1    4942    4955    4956    4943    6704    6705+
+           6706    6680
CQUAD8      2215       1    4943    4956    4957    4944    6706    6707+
+           6708    6682
CQUAD8      2216       1    4944    4957    4958    4945    6708    6709+
+           6710    6684
CQUAD8      2217       1    4945    4958    4959    4946    6710    6711+
+           6712    6686
CQUAD8      2218       1    4947    4960    4961    4948    6713    6714+
+           6715    6689
CQUAD8      2219       1    4948    4961    4962    4949    6715    6716+
+           6717    6691
CQUAD8      2220       1    4949    4962    4963    4950    6717    6718+
+           6719    6693
CQUAD8      2221       1    4950    4963    4964    4951    6719    6720+
+           6721    6695
CQUAD8      2222       1    4951    4964    4965    4952    6721    6722+
+           6723    6697
CQUAD8      2223       1    4952    4965    4966    4953    6723    6724+
+           6725    6699
CQUAD8      2224       1    4953    4966    4967    4954    6725    6726+
+           6727    6701
CQUAD8      2225       1    4954    4967    4968    4955    6727    6728+
+           6729    6703
CQUAD8      2226       1    4955    4968    4969    4956    6729    6730+
+           6731    6705
CQUAD8      2227       1    4956    4969    4970    4957    6731    6732+
+           6733    6707
CQUAD8      2228       1    4957    4970    4971    4958    6733    6734+
+           6735    6709
CQUAD8      2229       1    4958    4971    4972    4959    6735    6736+
+           6737    6711
CQUAD8      2230       1    4960    4973    4974    4961    6738    6739+
+           6740    6714
CQUAD8      2231       1    4961    4974    4975    4962    6740    6741+
+           6742    6716
CQUAD8      2232       1    4962    4975    4976    4963    6742    6743+
+           6744    6718
CQUAD8      2233       1    4963    4976    4977    4964    6744    6745+
+           6746    6720
CQUAD8      2234       1    4964    4977    4978    4965    6746    6747+
+           6748    6722
CQUAD8      2235       1    4965    4978    4979    4966    6748    6749+
+           6750    6724
CQUAD8      2236       1    4966    4979    4980    4967    6750    6751+
+           6752    6726
CQUAD8      2237       1    4967    4980    4981    4968    6752    6753+
+           6754    6728
CQUAD8      2238       1    4968    4981    4982    4969    6754    6755+
+           6756    6730
CQUAD8      2239       1    4969    4982    4983    4970    6756    6757+
+           6758    6732
CQUAD8      2240       1    4970    4983    4984    4971    6758    6759+
+           6760    6734
CQUAD8      2241       1    4971    4984    4985    4972    6760    6761+
+           6762    6736
CQUAD8      2242       1    4973    4986    4987    4974    6763    6764+
+           6765    6739
CQUAD8      2243       1    4974    4987    4988    4975    6765    6766+
+           6767    6741
CQUAD8      2244       1    4975    4988    4989    4976    6767    6768+
+           6769    6743
CQUAD8      2245       1    4976    4989    4990    4977    6769    6770+
+           6771    6745
CQUAD8      2246       1    4977    4990    4991    4978    6771    6772+
+           6773    6747
CQUAD8      2247       1    4978    4991    4992    4979    6773    6774+
+           6775    6749
CQUAD8      2248       1    4979    4992    4993    4980    6775    6776+
+           6777    6751
CQUAD8      2249       1    4980    4993    4994    4981    6777    6778+
+           6779    6753
CQUAD8      2250       1    4981    4994    4995    4982    6779    6780+
+           6781    6755
CQUAD8      2251       1    4982    4995    4996    4983    6781    6782+
+           6783    6757
CQUAD8      2252       1    4983    4996    4997    4984    6783    6784+
+           6785    6759
CQUAD8      2253       1    4984    4997    4998    4985    6785    6786+
+           6787    6761
CQUAD8      2254       1    4986    4999    5000    4987    6788    6789+
+           6790    6764
CQUAD8      2255       1    4987    5000    5001    4988    6790    6791+
+           6792    6766
CQUAD8      2256       1    4988    5001    5002    4989    6792    6793+
+           6794    6768
CQUAD8      2257       1    4989    5002    5003    4990    6794    6795+
+           6796    6770
CQUAD8      2258       1    4990    5003    5004    4991    6796    6797+
+           6798    6772
CQUAD8      2259       1    4991    5004    5005    4992    6798    6799+
+           6800    6774
CQUAD8      2260       1    4992    5005    5006    4993    6800    6801+
+           6802    6776
CQUAD8      2261       1    4993    5006    5007    4994    6802    6803+
+           6804    6778
CQUAD8      2262       1    4994    5007    5008    4995    6804    6805+
+           6806    6780
CQUAD8      2263       1    4995    5008    5009    4996    6806    6807+
+           6808    6782
CQUAD8      2264       1    4996    5009    5010    4997    6808    6809+
+           6810    6784
CQUAD8      2265       1    4997    5010    5011    4998    6810    6811+
+           6812    6786
CQUAD8      2266       1    4999    5012    5013    5000    6813    6814+
+           6815    6789
CQUAD8      2267       1    5000    5013    5014    5001    6815    6816+
+           6817    6791
CQUAD8      2268       1    5001    5014    5015    5002    6817    6818+
+           6819    6793
CQUAD8      2269       1    5002    5015    5016    5003    6819    6820+
+           6821    6795
CQUAD8      2270       1    5003    5016    5017    5004    6821    6822+
+           6823    6797
CQUAD8      2271       1    5004    5017    5018    5005    6823    6824+
+           6825    6799
CQUAD8      2272       1    5005    5018    5019    5006    6825    6826+
+           6827    6801
CQUAD8      2273       1    5006    5019    5020    5007    6827    6828+
+           6829    6803
CQUAD8      2274       1    5007    5020    5021    5008    6829    6830+
+           6831    6805
CQUAD8      2275       1    5008    5021    5022    5009    6831    6832+
+           6833    6807
CQUAD8      2276       1    5009    5022    5023    5010    6833    6834+
+           6835    6809
CQUAD8      2277       1    5010    5023    5024    5011    6835    6836+
+           6837    6811
CQUAD8      2278       1    5012    5025    5026    5013    6838    6839+
+           6840    6814
CQUAD8      2279       1    5013    5026    5027    5014    6840    6841+
+           6842    6816
CQUAD8      2280       1    5014    5027    5028    5015    6842    6843+
+           6844    6818
CQUAD8      2281       1    5015    5028    5029    5016    6844    6845+
+           6846    6820
CQUAD8      2282       1    5016    5029    5030    5017    6846    6847+
+           6848    6822
CQUAD8      2283       1    5017    5030    5031    5018    6848    6849+
+           6850    6824
CQUAD8      2284       1    5018    5031    5032    5019    6850    6851+
+           6852    6826
CQUAD8      2285       1    5019    5032    5033    5020    6852    6853+
+           6854    6828
CQUAD8      2286       1    5020    5033    5034    5021    6854    6855+
+           6856    6830
CQUAD8      2287       1    5021    5034    5035    5022    6856    6857+
+           6858    6832
CQUAD8      2288       1    5022    5035    5036    5023    6858    6859+
+           6860    6834
CQUAD8      2289       1    5023    5036    5037    5024    6860    6861+
+           6862    6836
CQUAD8      2290       1    5025    5038    5039    5026    6863    6864+
+           6865    6839
CQUAD8      2291       1    5026    5039    5040    5027    6865    6866+
+           6867    6841
CQUAD8      2292       1    5027    5040    5041    5028    6867    6868+
+           6869    6843
CQUAD8      2293       1    5028    5041    5042    5029    6869    6870+
+           6871    6845
CQUAD8      2294       1    5029    5042    5043    5030    6871    6872+
+           6873    6847
CQUAD8      2295       1    5030    5043    5044    5031    6873    6874+
+           6875    6849
CQUAD8      2296       1    5031    5044    5045    5032    6875    6876+
+           6877    6851
CQUAD8      2297       1    5032    5045    5046    5033    6877    6878+
+           6879    6853
CQUAD8      2298       1    5033    5046    5047    5034    6879    6880+
+           6881    6855
CQUAD8      2299       1    5034    5047    5048    5035    6881    6882+
+           6883    6857
CQUAD8      2300       1    5035    5048    5049    5036    6883    6884+
+           6885    6859
CQUAD8      2301       1    5036    5049    5050    5037    6885    6886+
+           6887    6861
CQUAD8      2302       1   10815   10424    4089   10084   10498    6888+
+           6889   10085
CQUAD8      2303       1   10424   10425    4102    4089   10499    6890+
+           5051    6888
CQUAD8      2304       1   10425   10426    4115    4102   10500    6891+
+           5088    6890
CQUAD8      2305       1   10426   10427    4128    4115   10501    6892+
+           5113    6891
CQUAD8      2306       1   10427   10428    4141    4128   10502    6893+
+           5138    6892
CQUAD8      2307       1   10428   10429    4154    4141   10503    6894+
+           5163    6893
CQUAD8      2308       1   10429   10430    4167    4154   10504    6895+
+           5188    6894
CQUAD8      2309       1   10430   10431    4180    4167   10505    6896+
+           5213    6895
CQUAD8      2310       1   10431   10432    4193    4180   10506    6897+
+           5238    6896
CQUAD8      2311       1   10432   10433    4206    4193   10507    6898+
+           5263    6897
CQUAD8      2312       1   10433   10434    4219    4206   10508    6899+
+           5288    6898
CQUAD8      2313       1   10434   10435    4232    4219   10509    6900+
+           5313    6899
CQUAD8      2314       1   10435   10436    4245    4232   10510    6901+
+           5338    6900
CQUAD8      2315       1   10436   10437    4258    4245   10511    6902+
+           5363    6901
CQUAD8      2316       1   10437   10438    4271    4258   10512    6903+
+           5388    6902
CQUAD8      2317       1   10438   10439    4284    4271   10513    6904+
+           5413    6903
CQUAD8      2318       1   10439   10440    4297    4284   10514    6905+
+           5438    6904
CQUAD8      2319       1   10440   10441    4310    4297   10515    6906+
+           5463    6905
CQUAD8      2320       1   10441   10442    4323    4310   10516    6907+
+           5488    6906
CQUAD8      2321       1   10442   10443    4336    4323   10517    6908+
+           5513    6907
CQUAD8      2322       1   10443   10444    4349    4336   10518    6909+
+           5538    6908
CQUAD8      2323       1   10444   10445    4362    4349   10519    6910+
+           5563    6909
CQUAD8      2324       1   10445   10446    4375    4362   10520    6911+
+           5588    6910
CQUAD8      2325       1   10446   10447    4388    4375   10521    6912+
+           5613    6911
CQUAD8      2326       1   10447   10448    4401    4388   10522    6913+
+           5638    6912
CQUAD8      2327       1   10448   10449    4414    4401   10523    6914+
+           5663    6913
CQUAD8      2328       1   10449   10450    4427    4414   10524    6915+
+           5688    6914
CQUAD8      2329       1   10450   10451    4440    4427   10525    6916+
+           5713    6915
CQUAD8      2330       1   10451   10452    4453    4440   10526    6917+
+           5738    6916
CQUAD8      2331       1   10452   10453    4466    4453   10527    6918+
+           5763    6917
CQUAD8      2332       1   10453   10454    4479    4466   10528    6919+
+           5788    6918
CQUAD8      2333       1   10454   10455    4492    4479   10529    6920+
+           5813    6919
CQUAD8      2334       1   10455   10456    4505    4492   10530    6921+
+           5838    6920
CQUAD8      2335       1   10456   10457    4518    4505   10531    6922+
+           5863    6921
CQUAD8      2336       1   10457   10458    4531    4518   10532    6923+
+           5888    6922
CQUAD8      2337       1   10458   10459    4544    4531   10533    6924+
+           5913    6923
CQUAD8      2338       1   10459   10460    4557    4544   10534    6925+
+           5938    6924
CQUAD8      2339       1   10460   10461    4570    4557   10535    6926+
+           5963    6925
CQUAD8      2340       1   10461   10462    4583    4570   10536    6927+
+           5988    6926
CQUAD8      2341       1   10462   10463    4596    4583   10537    6928+
+           6013    6927
CQUAD8      2342       1   10463   10464    4609    4596   10538    6929+
+           6038    6928
CQUAD8      2343       1   10464   10465    4622    4609   10539    6930+
+           6063    6929
CQUAD8      2344       1   10465   10466    4635    4622   10540    6931+
+           6088    6930
CQUAD8      2345       1   10466   10467    4648    4635   10541    6932+
+           6113    6931
CQUAD8      2346       1   10467   10468    4661    4648   10542    6933+
+           6138    6932
CQUAD8      2347       1   10468   10469    4674    4661   10543    6934+
+           6163    6933
CQUAD8      2348       1   10469   10470    4687    4674   10544    6935+
+           6188    6934
CQUAD8      2349       1   10470   10471    4700    4687   10545    6936+
+           6213    6935
CQUAD8      2350       1   10471   10472    4713    4700   10546    6937+
+           6238    6936
CQUAD8      2351       1   10472   10473    4726    4713   10547    6938+
+           6263    6937
CQUAD8      2352       1   10473   10474    4739    4726   10548    6939+
+           6288    6938
CQUAD8      2353       1   10474   10475    4752    4739   10549    6940+
+           6313    6939
CQUAD8      2354       1   10475   10476    4765    4752   10550    6941+
+           6338    6940
CQUAD8      2355       1   10476   10477    4778    4765   10551    6942+
+           6363    6941
CQUAD8      2356       1   10477   10478    4791    4778   10552    6943+
+           6388    6942
CQUAD8      2357       1   10478   10479    4804    4791   10553    6944+
+           6413    6943
CQUAD8      2358       1   10479   10480    4817    4804   10554    6945+
+           6438    6944
CQUAD8      2359       1   10480   10481    4830    4817   10555    6946+
+           6463    6945
CQUAD8      2360       1   10481   10482    4843    4830   10556    6947+
+           6488    6946
CQUAD8      2361       1   10482   10483    4856    4843   10557    6948+
+           6513    6947
CQUAD8      2362       1   10483   10484    4869    4856   10558    6949+
+           6538    6948
CQUAD8      2363       1   10484   10485    4882    4869   10559    6950+
+           6563    6949
CQUAD8      2364       1   10485   10486    4895    4882   10560    6951+
+           6588    6950
CQUAD8      2365       1   10486   10487    4908    4895   10561    6952+
+           6613    6951
CQUAD8      2366       1   10487   10488    4921    4908   10562    6953+
+           6638    6952
CQUAD8      2367       1   10488   10489    4934    4921   10563    6954+
+           6663    6953
CQUAD8      2368       1   10489   10490    4947    4934   10564    6955+
+           6688    6954
CQUAD8      2369       1   10490   10491    4960    4947   10565    6956+
+           6713    6955
CQUAD8      2370       1   10491   10492    4973    4960   10566    6957+
+           6738    6956
CQUAD8      2371       1   10492   10493    4986    4973   10567    6958+
+           6763    6957
CQUAD8      2372       1   10493   10494    4999    4986   10568    6959+
+           6788    6958
CQUAD8      2373       1   10494   10495    5012    4999   10569    6960+
+           6813    6959
CQUAD8      2374       1   10495   10496    5025    5012   10570    6961+
+           6838    6960
CQUAD8      2375       1   10496   10497    5038    5025   10571    6962+
+           6863    6961
CQUAD8      2376       1   10497   10819   10759    5038   10572   10772+
+           6963    6962
CQUAD8      2377       1    5038   10759   10760    5039    6963   10773+
+           6964    6864
CQUAD8      2378       1    5039   10760   10761    5040    6964   10774+
+           6965    6866
CQUAD8      2379       1    5040   10761   10762    5041    6965   10775+
+           6966    6868
CQUAD8      2380       1    5041   10762   10763    5042    6966   10776+
+           6967    6870
CQUAD8      2381       1    5042   10763   10764    5043    6967   10777+
+           6968    6872
CQUAD8      2382       1    5043   10764   10765    5044    6968   10778+
+           6969    6874
CQUAD8      2383       1    5044   10765   10766    5045    6969   10779+
+           6970    6876
CQUAD8      2384       1    5045   10766   10767    5046    6970   10780+
+           6971    6878
CQUAD8      2385       1    5046   10767   10768    5047    6971   10781+
+           6972    6880
CQUAD8      2386       1    5047   10768   10769    5048    6972   10782+
+           6973    6882
CQUAD8      2387       1    5048   10769   10770    5049    6973   10783+
+           6974    6884
CQUAD8      2388       1    5049   10770   10771    5050    6974   10784+
+           6975    6886
CQUAD8      2389       1    5050   10771   10817   10199    6975   10785+
+          10274    6976
CQUAD8      2390       1    5037    5050   10199   10198    6887    6976+
+          10273    6977
CQUAD8      2391       1    5024    5037   10198   10197    6862    6977+
+          10272    6978
CQUAD8      2392       1    5011    5024   10197   10196    6837    6978+
+          10271    6979
CQUAD8      2393       1    4998    5011   10196   10195    6812    6979+
+          10270    6980
CQUAD8      2394       1    4985    4998   10195   10194    6787    6980+
+          10269    6981
CQUAD8      2395       1    4972    4985   10194   10193    6762    6981+
+          10268    6982
CQUAD8      2396       1    4959    4972   10193   10192    6737    6982+
+          10267    6983
CQUAD8      2397       1    4946    4959   10192   10191    6712    6983+
+          10266    6984
CQUAD8      2398       1    4933    4946   10191   10190    6687    6984+
+          10265    6985
CQUAD8      2399       1    4920    4933   10190   10189    6662    6985+
+          10264    6986
CQUAD8      2400       1    4907    4920   10189   10188    6637    6986+
+          10263    6987
CQUAD8      2401       1    4894    4907   10188   10187    6612    6987+
+          10262    6988
CQUAD8      2402       1    4881    4894   10187   10186    6587    6988+
+          10261    6989
CQUAD8      2403       1    4868    4881   10186   10185    6562    6989+
+          10260    6990
CQUAD8      2404       1    4855    4868   10185   10184    6537    6990+
+          10259    6991
CQUAD8      2405       1    4842    4855   10184   10183    6512    6991+
+          10258    6992
CQUAD8      2406       1    4829    4842   10183   10182    6487    6992+
+          10257    6993
CQUAD8      2407       1    4816    4829   10182   10181    6462    6993+
+          10256    6994
CQUAD8      2408       1    4803    4816   10181   10180    6437    6994+
+          10255    6995
CQUAD8      2409       1    4790    4803   10180   10179    6412    6995+
+          10254    6996
CQUAD8      2410       1    4777    4790   10179   10178    6387    6996+
+          10253    6997
CQUAD8      2411       1    4764    4777   10178   10177    6362    6997+
+          10252    6998
CQUAD8      2412       1    4751    4764   10177   10176    6337    6998+
+          10251    6999
CQUAD8      2413       1    4738    4751   10176   10175    6312    6999+
+          10250    7000
CQUAD8      2414       1    4725    4738   10175   10174    6287    7000+
+          10249    7001
CQUAD8      2415       1    4712    4725   10174   10173    6262    7001+
+          10248    7002
CQUAD8      2416       1    4699    4712   10173   10172    6237    7002+
+          10247    7003
CQUAD8      2417       1    4686    4699   10172   10171    6212    7003+
+          10246    7004
CQUAD8      2418       1    4673    4686   10171   10170    6187    7004+
+          10245    7005
CQUAD8      2419       1    4660    4673   10170   10169    6162    7005+
+          10244    7006
CQUAD8      2420       1    4647    4660   10169   10168    6137    7006+
+          10243    7007
CQUAD8      2421       1    4634    4647   10168   10167    6112    7007+
+          10242    7008
CQUAD8      2422       1    4621    4634   10167   10166    6087    7008+
+          10241    7009
CQUAD8      2423       1    4608    4621   10166   10165    6062    7009+
+          10240    7010
CQUAD8      2424       1    4595    4608   10165   10164    6037    7010+
+          10239    7011
CQUAD8      2425       1    4582    4595   10164   10163    6012    7011+
+          10238    7012
CQUAD8      2426       1    4569    4582   10163   10162    5987    7012+
+          10237    7013
CQUAD8      2427       1    4556    4569   10162   10161    5962    7013+
+          10236    7014
CQUAD8      2428       1    4543    4556   10161   10160    5937    7014+
+          10235    7015
CQUAD8      2429       1    4530    4543   10160   10159    5912    7015+
+          10234    7016
CQUAD8      2430       1    4517    4530   10159   10158    5887    7016+
+          10233    7017
CQUAD8      2431       1    4504    4517   10158   10157    5862    7017+
+          10232    7018
CQUAD8      2432       1    4491    4504   10157   10156    5837    7018+
+          10231    7019
CQUAD8      2433       1    4478    4491   10156   10155    5812    7019+
+          10230    7020
CQUAD8      2434       1    4465    4478   10155   10154    5787    7020+
+          10229    7021
CQUAD8      2435       1    4452    4465   10154   10153    5762    7021+
+          10228    7022
CQUAD8      2436       1    4439    4452   10153   10152    5737    7022+
+          10227    7023
CQUAD8      2437       1    4426    4439   10152   10151    5712    7023+
+          10226    7024
CQUAD8      2438       1    4413    4426   10151   10150    5687    7024+
+          10225    7025
CQUAD8      2439       1    4400    4413   10150   10149    5662    7025+
+          10224    7026
CQUAD8      2440       1    4387    4400   10149   10148    5637    7026+
+          10223    7027
CQUAD8      2441       1    4374    4387   10148   10147    5612    7027+
+          10222    7028
CQUAD8      2442       1    4361    4374   10147   10146    5587    7028+
+          10221    7029
CQUAD8      2443       1    4348    4361   10146   10145    5562    7029+
+          10220    7030
CQUAD8      2444       1    4335    4348   10145   10144    5537    7030+
+          10219    7031
CQUAD8      2445       1    4322    4335   10144   10143    5512    7031+
+          10218    7032
CQUAD8      2446       1    4309    4322   10143   10142    5487    7032+
+          10217    7033
CQUAD8      2447       1    4296    4309   10142   10141    5462    7033+
+          10216    7034
CQUAD8      2448       1    4283    4296   10141   10140    5437    7034+
+          10215    7035
CQUAD8      2449       1    4270    4283   10140   10139    5412    7035+
+          10214    7036
CQUAD8      2450       1    4257    4270   10139   10138    5387    7036+
+          10213    7037
CQUAD8      2451       1    4244    4257   10138   10137    5362    7037+
+          10212    7038
CQUAD8      2452       1    4231    4244   10137   10136    5337    7038+
+          10211    7039
CQUAD8      2453       1    4218    4231   10136   10135    5312    7039+
+          10210    7040
CQUAD8      2454       1    4205    4218   10135   10134    5287    7040+
+          10209    7041
CQUAD8      2455       1    4192    4205   10134   10133    5262    7041+
+          10208    7042
CQUAD8      2456       1    4179    4192   10133   10132    5237    7042+
+          10207    7043
CQUAD8      2457       1    4166    4179   10132   10131    5212    7043+
+          10206    7044
CQUAD8      2458       1    4153    4166   10131   10130    5187    7044+
+          10205    7045
CQUAD8      2459       1    4140    4153   10130   10129    5162    7045+
+          10204    7046
CQUAD8      2460       1    4127    4140   10129   10128    5137    7046+
+          10203    7047
CQUAD8      2461       1    4114    4127   10128   10127    5112    7047+
+          10202    7048
CQUAD8      2462       1    4101    4114   10127   10126    5086    7048+
+          10201    7049
CQUAD8      2463       1   10072    4101   10126   10814    7050    7049+
+          10200   10086
CQUAD8      2464       1   10073    4100    4101   10072    7051    5087+
+           7050   10087
CQUAD8      2465       1   10074    4099    4100   10073    7052    5084+
+           7051   10088
CQUAD8      2466       1   10075    4098    4099   10074    7053    5081+
+           7052   10089
CQUAD8      2467       1   10076    4097    4098   10075    7054    5078+
+           7053   10090
CQUAD8      2468       1   10077    4096    4097   10076    7055    5075+
+           7054   10091
CQUAD8      2469       1   10078    4095    4096   10077    7056    5072+
+           7055   10092
CQUAD8      2470       1   10079    4094    4095   10078    7057    5069+
+           7056   10093
CQUAD8      2471       1   10080    4093    4094   10079    7058    5066+
+           7057   10094
CQUAD8      2472       1   10081    4092    4093   10080    7059    5063+
+           7058   10095
CQUAD8      2473       1   10082    4091    4092   10081    7060    5060+
+           7059   10096
CQUAD8      2474       1   10083    4090    4091   10082    7061    5057+
+           7060   10097
CQUAD8      2475       1   10084    4089    4090   10083    6889    5054+
+           7061   10098
CQUAD8      2476       1    7062    7075    7076    7063    8024    8025+
+           8026    8027
CQUAD8      2477       1    7063    7076    7077    7064    8026    8028+
+           8029    8030
CQUAD8      2478       1    7064    7077    7078    7065    8029    8031+
+           8032    8033
CQUAD8      2479       1    7065    7078    7079    7066    8032    8034+
+           8035    8036
CQUAD8      2480       1    7066    7079    7080    7067    8035    8037+
+           8038    8039
CQUAD8      2481       1    7067    7080    7081    7068    8038    8040+
+           8041    8042
CQUAD8      2482       1    7068    7081    7082    7069    8041    8043+
+           8044    8045
CQUAD8      2483       1    7069    7082    7083    7070    8044    8046+
+           8047    8048
CQUAD8      2484       1    7070    7083    7084    7071    8047    8049+
+           8050    8051
CQUAD8      2485       1    7071    7084    7085    7072    8050    8052+
+           8053    8054
CQUAD8      2486       1    7072    7085    7086    7073    8053    8055+
+           8056    8057
CQUAD8      2487       1    7073    7086    7087    7074    8056    8058+
+           8059    8060
CQUAD8      2488       1    7075    7088    7089    7076    8061    8062+
+           8063    8025
CQUAD8      2489       1    7076    7089    7090    7077    8063    8064+
+           8065    8028
CQUAD8      2490       1    7077    7090    7091    7078    8065    8066+
+           8067    8031
CQUAD8      2491       1    7078    7091    7092    7079    8067    8068+
+           8069    8034
CQUAD8      2492       1    7079    7092    7093    7080    8069    8070+
+           8071    8037
CQUAD8      2493       1    7080    7093    7094    7081    8071    8072+
+           8073    8040
CQUAD8      2494       1    7081    7094    7095    7082    8073    8074+
+           8075    8043
CQUAD8      2495       1    7082    7095    7096    7083    8075    8076+
+           8077    8046
CQUAD8      2496       1    7083    7096    7097    7084    8077    8078+
+           8079    8049
CQUAD8      2497       1    7084    7097    7098    7085    8079    8080+
+           8081    8052
CQUAD8      2498       1    7085    7098    7099    7086    8081    8082+
+           8083    8055
CQUAD8      2499       1    7086    7099    7100    7087    8083    8084+
+           8085    8058
CQUAD8      2500       1    7088    7101    7102    7089    8086    8087+
+           8088    8062
CQUAD8      2501       1    7089    7102    7103    7090    8088    8089+
+           8090    8064
CQUAD8      2502       1    7090    7103    7104    7091    8090    8091+
+           8092    8066
CQUAD8      2503       1    7091    7104    7105    7092    8092    8093+
+           8094    8068
CQUAD8      2504       1    7092    7105    7106    7093    8094    8095+
+           8096    8070
CQUAD8      2505       1    7093    7106    7107    7094    8096    8097+
+           8098    8072
CQUAD8      2506       1    7094    7107    7108    7095    8098    8099+
+           8100    8074
CQUAD8      2507       1    7095    7108    7109    7096    8100    8101+
+           8102    8076
CQUAD8      2508       1    7096    7109    7110    7097    8102    8103+
+           8104    8078
CQUAD8      2509       1    7097    7110    7111    7098    8104    8105+
+           8106    8080
CQUAD8      2510       1    7098    7111    7112    7099    8106    8107+
+           8108    8082
CQUAD8      2511       1    7099    7112    7113    7100    8108    8109+
+           8110    8084
CQUAD8      2512       1    7101    7114    7115    7102    8111    8112+
+           8113    8087
CQUAD8      2513       1    7102    7115    7116    7103    8113    8114+
+           8115    8089
CQUAD8      2514       1    7103    7116    7117    7104    8115    8116+
+           8117    8091
CQUAD8      2515       1    7104    7117    7118    7105    8117    8118+
+           8119    8093
CQUAD8      2516       1    7105    7118    7119    7106    8119    8120+
+           8121    8095
CQUAD8      2517       1    7106    7119    7120    7107    8121    8122+
+           8123    8097
CQUAD8      2518       1    7107    7120    7121    7108    8123    8124+
+           8125    8099
CQUAD8      2519       1    7108    7121    7122    7109    8125    8126+
+           8127    8101
CQUAD8      2520       1    7109    7122    7123    7110    8127    8128+
+           8129    8103
CQUAD8      2521       1    7110    7123    7124    7111    8129    8130+
+           8131    8105
CQUAD8      2522       1    7111    7124    7125    7112    8131    8132+
+           8133    8107
CQUAD8      2523       1    7112    7125    7126    7113    8133    8134+
+           8135    8109
CQUAD8      2524       1    7114    7127    7128    7115    8136    8137+
+           8138    8112
CQUAD8      2525       1    7115    7128    7129    7116    8138    8139+
+           8140    8114
CQUAD8      2526       1    7116    7129    7130    7117    8140    8141+
+           8142    8116
CQUAD8      2527       1    7117    7130    7131    7118    8142    8143+
+           8144    8118
CQUAD8      2528       1    7118    7131    7132    7119    8144    8145+
+           8146    8120
CQUAD8      2529       1    7119    7132    7133    7120    8146    8147+
+           8148    8122
CQUAD8      2530       1    7120    7133    7134    7121    8148    8149+
+           8150    8124
CQUAD8      2531       1    7121    7134    7135    7122    8150    8151+
+           8152    8126
CQUAD8      2532       1    7122    7135    7136    7123    8152    8153+
+           8154    8128
CQUAD8      2533       1    7123    7136    7137    7124    8154    8155+
+           8156    8130
CQUAD8      2534       1    7124    7137    7138    7125    8156    8157+
+           8158    8132
CQUAD8      2535       1    7125    7138    7139    7126    8158    8159+
+           8160    8134
CQUAD8      2536       1    7127    7140    7141    7128    8161    8162+
+           8163    8137
CQUAD8      2537       1    7128    7141    7142    7129    8163    8164+
+           8165    8139
CQUAD8      2538       1    7129    7142    7143    7130    8165    8166+
+           8167    8141
CQUAD8      2539       1    7130    7143    7144    7131    8167    8168+
+           8169    8143
CQUAD8      2540       1    7131    7144    7145    7132    8169    8170+
+           8171    8145
CQUAD8      2541       1    7132    7145    7146    7133    8171    8172+
+           8173    8147
CQUAD8      2542       1    7133    7146    7147    7134    8173    8174+
+           8175    8149
CQUAD8      2543       1    7134    7147    7148    7135    8175    8176+
+           8177    8151
CQUAD8      2544       1    7135    7148    7149    7136    8177    8178+
+           8179    8153
CQUAD8      2545       1    7136    7149    7150    7137    8179    8180+
+           8181    8155
CQUAD8      2546       1    7137    7150    7151    7138    8181    8182+
+           8183    8157
CQUAD8      2547       1    7138    7151    7152    7139    8183    8184+
+           8185    8159
CQUAD8      2548       1    7140    7153    7154    7141    8186    8187+
+           8188    8162
CQUAD8      2549       1    7141    7154    7155    7142    8188    8189+
+           8190    8164
CQUAD8      2550       1    7142    7155    7156    7143    8190    8191+
+           8192    8166
CQUAD8      2551       1    7143    7156    7157    7144    8192    8193+
+           8194    8168
CQUAD8      2552       1    7144    7157    7158    7145    8194    8195+
+           8196    8170
CQUAD8      2553       1    7145    7158    7159    7146    8196    8197+
+           8198    8172
CQUAD8      2554       1    7146    7159    7160    7147    8198    8199+
+           8200    8174
CQUAD8      2555       1    7147    7160    7161    7148    8200    8201+
+           8202    8176
CQUAD8      2556       1    7148    7161    7162    7149    8202    8203+
+           8204    8178
CQUAD8      2557       1    7149    7162    7163    7150    8204    8205+
+           8206    8180
CQUAD8      2558       1    7150    7163    7164    7151    8206    8207+
+           8208    8182
CQUAD8      2559       1    7151    7164    7165    7152    8208    8209+
+           8210    8184
CQUAD8      2560       1    7153    7166    7167    7154    8211    8212+
+           8213    8187
CQUAD8      2561       1    7154    7167    7168    7155    8213    8214+
+           8215    8189
CQUAD8      2562       1    7155    7168    7169    7156    8215    8216+
+           8217    8191
CQUAD8      2563       1    7156    7169    7170    7157    8217    8218+
+           8219    8193
CQUAD8      2564       1    7157    7170    7171    7158    8219    8220+
+           8221    8195
CQUAD8      2565       1    7158    7171    7172    7159    8221    8222+
+           8223    8197
CQUAD8      2566       1    7159    7172    7173    7160    8223    8224+
+           8225    8199
CQUAD8      2567       1    7160    7173    7174    7161    8225    8226+
+           8227    8201
CQUAD8      2568       1    7161    7174    7175    7162    8227    8228+
+           8229    8203
CQUAD8      2569       1    7162    7175    7176    7163    8229    8230+
+           8231    8205
CQUAD8      2570       1    7163    7176    7177    7164    8231    8232+
+           8233    8207
CQUAD8      2571       1    7164    7177    7178    7165    8233    8234+
+           8235    8209
CQUAD8      2572       1    7166    7179    7180    7167    8236    8237+
+           8238    8212
CQUAD8      2573       1    7167    7180    7181    7168    8238    8239+
+           8240    8214
CQUAD8      2574       1    7168    7181    7182    7169    8240    8241+
+           8242    8216
CQUAD8      2575       1    7169    7182    7183    7170    8242    8243+
+           8244    8218
CQUAD8      2576       1    7170    7183    7184    7171    8244    8245+
+           8246    8220
CQUAD8      2577       1    7171    7184    7185    7172    8246    8247+
+           8248    8222
CQUAD8      2578       1    7172    7185    7186    7173    8248    8249+
+           8250    8224
CQUAD8      2579       1    7173    7186    7187    7174    8250    8251+
+           8252    8226
CQUAD8      2580       1    7174    7187    7188    7175    8252    8253+
+           8254    8228
CQUAD8      2581       1    7175    7188    7189    7176    8254    8255+
+           8256    8230
CQUAD8      2582       1    7176    7189    7190    7177    8256    8257+
+           8258    8232
CQUAD8      2583       1    7177    7190    7191    7178    8258    8259+
+           8260    8234
CQUAD8      2584       1    7179    7192    7193    7180    8261    8262+
+           8263    8237
CQUAD8      2585       1    7180    7193    7194    7181    8263    8264+
+           8265    8239
CQUAD8      2586       1    7181    7194    7195    7182    8265    8266+
+           8267    8241
CQUAD8      2587       1    7182    7195    7196    7183    8267    8268+
+           8269    8243
CQUAD8      2588       1    7183    7196    7197    7184    8269    8270+
+           8271    8245
CQUAD8      2589       1    7184    7197    7198    7185    8271    8272+
+           8273    8247
CQUAD8      2590       1    7185    7198    7199    7186    8273    8274+
+           8275    8249
CQUAD8      2591       1    7186    7199    7200    7187    8275    8276+
+           8277    8251
CQUAD8      2592       1    7187    7200    7201    7188    8277    8278+
+           8279    8253
CQUAD8      2593       1    7188    7201    7202    7189    8279    8280+
+           8281    8255
CQUAD8      2594       1    7189    7202    7203    7190    8281    8282+
+           8283    8257
CQUAD8      2595       1    7190    7203    7204    7191    8283    8284+
+           8285    8259
CQUAD8      2596       1    7192    7205    7206    7193    8286    8287+
+           8288    8262
CQUAD8      2597       1    7193    7206    7207    7194    8288    8289+
+           8290    8264
CQUAD8      2598       1    7194    7207    7208    7195    8290    8291+
+           8292    8266
CQUAD8      2599       1    7195    7208    7209    7196    8292    8293+
+           8294    8268
CQUAD8      2600       1    7196    7209    7210    7197    8294    8295+
+           8296    8270
CQUAD8      2601       1    7197    7210    7211    7198    8296    8297+
+           8298    8272
CQUAD8      2602       1    7198    7211    7212    7199    8298    8299+
+           8300    8274
CQUAD8      2603       1    7199    7212    7213    7200    8300    8301+
+           8302    8276
CQUAD8      2604       1    7200    7213    7214    7201    8302    8303+
+           8304    8278
CQUAD8      2605       1    7201    7214    7215    7202    8304    8305+
+           8306    8280
CQUAD8      2606       1    7202    7215    7216    7203    8306    8307+
+           8308    8282
CQUAD8      2607       1    7203    7216    7217    7204    8308    8309+
+           8310    8284
CQUAD8      2608       1    7205    7218    7219    7206    8311    8312+
+           8313    8287
CQUAD8      2609       1    7206    7219    7220    7207    8313    8314+
+           8315    8289
CQUAD8      2610       1    7207    7220    7221    7208    8315    8316+
+           8317    8291
CQUAD8      2611       1    7208    7221    7222    7209    8317    8318+
+           8319    8293
CQUAD8      2612       1    7209    7222    7223    7210    8319    8320+
+           8321    8295
CQUAD8      2613       1    7210    7223    7224    7211    8321    8322+
+           8323    8297
CQUAD8      2614       1    7211    7224    7225    7212    8323    8324+
+           8325    8299
CQUAD8      2615       1    7212    7225    7226    7213    8325    8326+
+           8327    8301
CQUAD8      2616       1    7213    7226    7227    7214    8327    8328+
+           8329    8303
CQUAD8      2617       1    7214    7227    7228    7215    8329    8330+
+           8331    8305
CQUAD8      2618       1    7215    7228    7229    7216    8331    8332+
+           8333    8307
CQUAD8      2619       1    7216    7229    7230    7217    8333    8334+
+           8335    8309
CQUAD8      2620       1    7218    7231    7232    7219    8336    8337+
+           8338    8312
CQUAD8      2621       1    7219    7232    7233    7220    8338    8339+
+           8340    8314
CQUAD8      2622       1    7220    7233    7234    7221    8340    8341+
+           8342    8316
CQUAD8      2623       1    7221    7234    7235    7222    8342    8343+
+           8344    8318
CQUAD8      2624       1    7222    7235    7236    7223    8344    8345+
+           8346    8320
CQUAD8      2625       1    7223    7236    7237    7224    8346    8347+
+           8348    8322
CQUAD8      2626       1    7224    7237    7238    7225    8348    8349+
+           8350    8324
CQUAD8      2627       1    7225    7238    7239    7226    8350    8351+
+           8352    8326
CQUAD8      2628       1    7226    7239    7240    7227    8352    8353+
+           8354    8328
CQUAD8      2629       1    7227    7240    7241    7228    8354    8355+
+           8356    8330
CQUAD8      2630       1    7228    7241    7242    7229    8356    8357+
+           8358    8332
CQUAD8      2631       1    7229    7242    7243    7230    8358    8359+
+           8360    8334
CQUAD8      2632       1    7231    7244    7245    7232    8361    8362+
+           8363    8337
CQUAD8      2633       1    7232    7245    7246    7233    8363    8364+
+           8365    8339
CQUAD8      2634       1    7233    7246    7247    7234    8365    8366+
+           8367    8341
CQUAD8      2635       1    7234    7247    7248    7235    8367    8368+
+           8369    8343
CQUAD8      2636       1    7235    7248    7249    7236    8369    8370+
+           8371    8345
CQUAD8      2637       1    7236    7249    7250    7237    8371    8372+
+           8373    8347
CQUAD8      2638       1    7237    7250    7251    7238    8373    8374+
+           8375    8349
CQUAD8      2639       1    7238    7251    7252    7239    8375    8376+
+           8377    8351
CQUAD8      2640       1    7239    7252    7253    7240    8377    8378+
+           8379    8353
CQUAD8      2641       1    7240    7253    7254    7241    8379    8380+
+           8381    8355
CQUAD8      2642       1    7241    7254    7255    7242    8381    8382+
+           8383    8357
CQUAD8      2643       1    7242    7255    7256    7243    8383    8384+
+           8385    8359
CQUAD8      2644       1    7244    7257    7258    7245    8386    8387+
+           8388    8362
CQUAD8      2645       1    7245    7258    7259    7246    8388    8389+
+           8390    8364
CQUAD8      2646       1    7246    7259    7260    7247    8390    8391+
+           8392    8366
CQUAD8      2647       1    7247    7260    7261    7248    8392    8393+
+           8394    8368
CQUAD8      2648       1    7248    7261    7262    7249    8394    8395+
+           8396    8370
CQUAD8      2649       1    7249    7262    7263    7250    8396    8397+
+           8398    8372
CQUAD8      2650       1    7250    7263    7264    7251    8398    8399+
+           8400    8374
CQUAD8      2651       1    7251    7264    7265    7252    8400    8401+
+           8402    8376
CQUAD8      2652       1    7252    7265    7266    7253    8402    8403+
+           8404    8378
CQUAD8      2653       1    7253    7266    7267    7254    8404    8405+
+           8406    8380
CQUAD8      2654       1    7254    7267    7268    7255    8406    8407+
+           8408    8382
CQUAD8      2655       1    7255    7268    7269    7256    8408    8409+
+           8410    8384
CQUAD8      2656       1    7257    7270    7271    7258    8411    8412+
+           8413    8387
CQUAD8      2657       1    7258    7271    7272    7259    8413    8414+
+           8415    8389
CQUAD8      2658       1    7259    7272    7273    7260    8415    8416+
+           8417    8391
CQUAD8      2659       1    7260    7273    7274    7261    8417    8418+
+           8419    8393
CQUAD8      2660       1    7261    7274    7275    7262    8419    8420+
+           8421    8395
CQUAD8      2661       1    7262    7275    7276    7263    8421    8422+
+           8423    8397
CQUAD8      2662       1    7263    7276    7277    7264    8423    8424+
+           8425    8399
CQUAD8      2663       1    7264    7277    7278    7265    8425    8426+
+           8427    8401
CQUAD8      2664       1    7265    7278    7279    7266    8427    8428+
+           8429    8403
CQUAD8      2665       1    7266    7279    7280    7267    8429    8430+
+           8431    8405
CQUAD8      2666       1    7267    7280    7281    7268    8431    8432+
+           8433    8407
CQUAD8      2667       1    7268    7281    7282    7269    8433    8434+
+           8435    8409
CQUAD8      2668       1    7270    7283    7284    7271    8436    8437+
+           8438    8412
CQUAD8      2669       1    7271    7284    7285    7272    8438    8439+
+           8440    8414
CQUAD8      2670       1    7272    7285    7286    7273    8440    8441+
+           8442    8416
CQUAD8      2671       1    7273    7286    7287    7274    8442    8443+
+           8444    8418
CQUAD8      2672       1    7274    7287    7288    7275    8444    8445+
+           8446    8420
CQUAD8      2673       1    7275    7288    7289    7276    8446    8447+
+           8448    8422
CQUAD8      2674       1    7276    7289    7290    7277    8448    8449+
+           8450    8424
CQUAD8      2675       1    7277    7290    7291    7278    8450    8451+
+           8452    8426
CQUAD8      2676       1    7278    7291    7292    7279    8452    8453+
+           8454    8428
CQUAD8      2677       1    7279    7292    7293    7280    8454    8455+
+           8456    8430
CQUAD8      2678       1    7280    7293    7294    7281    8456    8457+
+           8458    8432
CQUAD8      2679       1    7281    7294    7295    7282    8458    8459+
+           8460    8434
CQUAD8      2680       1    7283    7296    7297    7284    8461    8462+
+           8463    8437
CQUAD8      2681       1    7284    7297    7298    7285    8463    8464+
+           8465    8439
CQUAD8      2682       1    7285    7298    7299    7286    8465    8466+
+           8467    8441
CQUAD8      2683       1    7286    7299    7300    7287    8467    8468+
+           8469    8443
CQUAD8      2684       1    7287    7300    7301    7288    8469    8470+
+           8471    8445
CQUAD8      2685       1    7288    7301    7302    7289    8471    8472+
+           8473    8447
CQUAD8      2686       1    7289    7302    7303    7290    8473    8474+
+           8475    8449
CQUAD8      2687       1    7290    7303    7304    7291    8475    8476+
+           8477    8451
CQUAD8      2688       1    7291    7304    7305    7292    8477    8478+
+           8479    8453
CQUAD8      2689       1    7292    7305    7306    7293    8479    8480+
+           8481    8455
CQUAD8      2690       1    7293    7306    7307    7294    8481    8482+
+           8483    8457
CQUAD8      2691       1    7294    7307    7308    7295    8483    8484+
+           8485    8459
CQUAD8      2692       1    7296    7309    7310    7297    8486    8487+
+           8488    8462
CQUAD8      2693       1    7297    7310    7311    7298    8488    8489+
+           8490    8464
CQUAD8      2694       1    7298    7311    7312    7299    8490    8491+
+           8492    8466
CQUAD8      2695       1    7299    7312    7313    7300    8492    8493+
+           8494    8468
CQUAD8      2696       1    7300    7313    7314    7301    8494    8495+
+           8496    8470
CQUAD8      2697       1    7301    7314    7315    7302    8496    8497+
+           8498    8472
CQUAD8      2698       1    7302    7315    7316    7303    8498    8499+
+           8500    8474
CQUAD8      2699       1    7303    7316    7317    7304    8500    8501+
+           8502    8476
CQUAD8      2700       1    7304    7317    7318    7305    8502    8503+
+           8504    8478
CQUAD8      2701       1    7305    7318    7319    7306    8504    8505+
+           8506    8480
CQUAD8      2702       1    7306    7319    7320    7307    8506    8507+
+           8508    8482
CQUAD8      2703       1    7307    7320    7321    7308    8508    8509+
+           8510    8484
CQUAD8      2704       1    7309    7322    7323    7310    8511    8512+
+           8513    8487
CQUAD8      2705       1    7310    7323    7324    7311    8513    8514+
+           8515    8489
CQUAD8      2706       1    7311    7324    7325    7312    8515    8516+
+           8517    8491
CQUAD8      2707       1    7312    7325    7326    7313    8517    8518+
+           8519    8493
CQUAD8      2708       1    7313    7326    7327    7314    8519    8520+
+           8521    8495
CQUAD8      2709       1    7314    7327    7328    7315    8521    8522+
+           8523    8497
CQUAD8      2710       1    7315    7328    7329    7316    8523    8524+
+           8525    8499
CQUAD8      2711       1    7316    7329    7330    7317    8525    8526+
+           8527    8501
CQUAD8      2712       1    7317    7330    7331    7318    8527    8528+
+           8529    8503
CQUAD8      2713       1    7318    7331    7332    7319    8529    8530+
+           8531    8505
CQUAD8      2714       1    7319    7332    7333    7320    8531    8532+
+           8533    8507
CQUAD8      2715       1    7320    7333    7334    7321    8533    8534+
+           8535    8509
CQUAD8      2716       1    7322    7335    7336    7323    8536    8537+
+           8538    8512
CQUAD8      2717       1    7323    7336    7337    7324    8538    8539+
+           8540    8514
CQUAD8      2718       1    7324    7337    7338    7325    8540    8541+
+           8542    8516
CQUAD8      2719       1    7325    7338    7339    7326    8542    8543+
+           8544    8518
CQUAD8      2720       1    7326    7339    7340    7327    8544    8545+
+           8546    8520
CQUAD8      2721       1    7327    7340    7341    7328    8546    8547+
+           8548    8522
CQUAD8      2722       1    7328    7341    7342    7329    8548    8549+
+           8550    8524
CQUAD8      2723       1    7329    7342    7343    7330    8550    8551+
+           8552    8526
CQUAD8      2724       1    7330    7343    7344    7331    8552    8553+
+           8554    8528
CQUAD8      2725       1    7331    7344    7345    7332    8554    8555+
+           8556    8530
CQUAD8      2726       1    7332    7345    7346    7333    8556    8557+
+           8558    8532
CQUAD8      2727       1    7333    7346    7347    7334    8558    8559+
+           8560    8534
CQUAD8      2728       1    7335    7348    7349    7336    8561    8562+
+           8563    8537
CQUAD8      2729       1    7336    7349    7350    7337    8563    8564+
+           8565    8539
CQUAD8      2730       1    7337    7350    7351    7338    8565    8566+
+           8567    8541
CQUAD8      2731       1    7338    7351    7352    7339    8567    8568+
+           8569    8543
CQUAD8      2732       1    7339    7352    7353    7340    8569    8570+
+           8571    8545
CQUAD8      2733       1    7340    7353    7354    7341    8571    8572+
+           8573    8547
CQUAD8      2734       1    7341    7354    7355    7342    8573    8574+
+           8575    8549
CQUAD8      2735       1    7342    7355    7356    7343    8575    8576+
+           8577    8551
CQUAD8      2736       1    7343    7356    7357    7344    8577    8578+
+           8579    8553
CQUAD8      2737       1    7344    7357    7358    7345    8579    8580+
+           8581    8555
CQUAD8      2738       1    7345    7358    7359    7346    8581    8582+
+           8583    8557
CQUAD8      2739       1    7346    7359    7360    7347    8583    8584+
+           8585    8559
CQUAD8      2740       1    7348    7361    7362    7349    8586    8587+
+           8588    8562
CQUAD8      2741       1    7349    7362    7363    7350    8588    8589+
+           8590    8564
CQUAD8      2742       1    7350    7363    7364    7351    8590    8591+
+           8592    8566
CQUAD8      2743       1    7351    7364    7365    7352    8592    8593+
+           8594    8568
CQUAD8      2744       1    7352    7365    7366    7353    8594    8595+
+           8596    8570
CQUAD8      2745       1    7353    7366    7367    7354    8596    8597+
+           8598    8572
CQUAD8      2746       1    7354    7367    7368    7355    8598    8599+
+           8600    8574
CQUAD8      2747       1    7355    7368    7369    7356    8600    8601+
+           8602    8576
CQUAD8      2748       1    7356    7369    7370    7357    8602    8603+
+           8604    8578
CQUAD8      2749       1    7357    7370    7371    7358    8604    8605+
+           8606    8580
CQUAD8      2750       1    7358    7371    7372    7359    8606    8607+
+           8608    8582
CQUAD8      2751       1    7359    7372    7373    7360    8608    8609+
+           8610    8584
CQUAD8      2752       1    7361    7374    7375    7362    8611    8612+
+           8613    8587
CQUAD8      2753       1    7362    7375    7376    7363    8613    8614+
+           8615    8589
CQUAD8      2754       1    7363    7376    7377    7364    8615    8616+
+           8617    8591
CQUAD8      2755       1    7364    7377    7378    7365    8617    8618+
+           8619    8593
CQUAD8      2756       1    7365    7378    7379    7366    8619    8620+
+           8621    8595
CQUAD8      2757       1    7366    7379    7380    7367    8621    8622+
+           8623    8597
CQUAD8      2758       1    7367    7380    7381    7368    8623    8624+
+           8625    8599
CQUAD8      2759       1    7368    7381    7382    7369    8625    8626+
+           8627    8601
CQUAD8      2760       1    7369    7382    7383    7370    8627    8628+
+           8629    8603
CQUAD8      2761       1    7370    7383    7384    7371    8629    8630+
+           8631    8605
CQUAD8      2762       1    7371    7384    7385    7372    8631    8632+
+           8633    8607
CQUAD8      2763       1    7372    7385    7386    7373    8633    8634+
+           8635    8609
CQUAD8      2764       1    7374    7387    7388    7375    8636    8637+
+           8638    8612
CQUAD8      2765       1    7375    7388    7389    7376    8638    8639+
+           8640    8614
CQUAD8      2766       1    7376    7389    7390    7377    8640    8641+
+           8642    8616
CQUAD8      2767       1    7377    7390    7391    7378    8642    8643+
+           8644    8618
CQUAD8      2768       1    7378    7391    7392    7379    8644    8645+
+           8646    8620
CQUAD8      2769       1    7379    7392    7393    7380    8646    8647+
+           8648    8622
CQUAD8      2770       1    7380    7393    7394    7381    8648    8649+
+           8650    8624
CQUAD8      2771       1    7381    7394    7395    7382    8650    8651+
+           8652    8626
CQUAD8      2772       1    7382    7395    7396    7383    8652    8653+
+           8654    8628
CQUAD8      2773       1    7383    7396    7397    7384    8654    8655+
+           8656    8630
CQUAD8      2774       1    7384    7397    7398    7385    8656    8657+
+           8658    8632
CQUAD8      2775       1    7385    7398    7399    7386    8658    8659+
+           8660    8634
CQUAD8      2776       1    7387    7400    7401    7388    8661    8662+
+           8663    8637
CQUAD8      2777       1    7388    7401    7402    7389    8663    8664+
+           8665    8639
CQUAD8      2778       1    7389    7402    7403    7390    8665    8666+
+           8667    8641
CQUAD8      2779       1    7390    7403    7404    7391    8667    8668+
+           8669    8643
CQUAD8      2780       1    7391    7404    7405    7392    8669    8670+
+           8671    8645
CQUAD8      2781       1    7392    7405    7406    7393    8671    8672+
+           8673    8647
CQUAD8      2782       1    7393    7406    7407    7394    8673    8674+
+           8675    8649
CQUAD8      2783       1    7394    7407    7408    7395    8675    8676+
+           8677    8651
CQUAD8      2784       1    7395    7408    7409    7396    8677    8678+
+           8679    8653
CQUAD8      2785       1    7396    7409    7410    7397    8679    8680+
+           8681    8655
CQUAD8      2786       1    7397    7410    7411    7398    8681    8682+
+           8683    8657
CQUAD8      2787       1    7398    7411    7412    7399    8683    8684+
+           8685    8659
CQUAD8      2788       1    7400    7413    7414    7401    8686    8687+
+           8688    8662
CQUAD8      2789       1    7401    7414    7415    7402    8688    8689+
+           8690    8664
CQUAD8      2790       1    7402    7415    7416    7403    8690    8691+
+           8692    8666
CQUAD8      2791       1    7403    7416    7417    7404    8692    8693+
+           8694    8668
CQUAD8      2792       1    7404    7417    7418    7405    8694    8695+
+           8696    8670
CQUAD8      2793       1    7405    7418    7419    7406    8696    8697+
+           8698    8672
CQUAD8      2794       1    7406    7419    7420    7407    8698    8699+
+           8700    8674
CQUAD8      2795       1    7407    7420    7421    7408    8700    8701+
+           8702    8676
CQUAD8      2796       1    7408    7421    7422    7409    8702    8703+
+           8704    8678
CQUAD8      2797       1    7409    7422    7423    7410    8704    8705+
+           8706    8680
CQUAD8      2798       1    7410    7423    7424    7411    8706    8707+
+           8708    8682
CQUAD8      2799       1    7411    7424    7425    7412    8708    8709+
+           8710    8684
CQUAD8      2800       1    7413    7426    7427    7414    8711    8712+
+           8713    8687
CQUAD8      2801       1    7414    7427    7428    7415    8713    8714+
+           8715    8689
CQUAD8      2802       1    7415    7428    7429    7416    8715    8716+
+           8717    8691
CQUAD8      2803       1    7416    7429    7430    7417    8717    8718+
+           8719    8693
CQUAD8      2804       1    7417    7430    7431    7418    8719    8720+
+           8721    8695
CQUAD8      2805       1    7418    7431    7432    7419    8721    8722+
+           8723    8697
CQUAD8      2806       1    7419    7432    7433    7420    8723    8724+
+           8725    8699
CQUAD8      2807       1    7420    7433    7434    7421    8725    8726+
+           8727    8701
CQUAD8      2808       1    7421    7434    7435    7422    8727    8728+
+           8729    8703
CQUAD8      2809       1    7422    7435    7436    7423    8729    8730+
+           8731    8705
CQUAD8      2810       1    7423    7436    7437    7424    8731    8732+
+           8733    8707
CQUAD8      2811       1    7424    7437    7438    7425    8733    8734+
+           8735    8709
CQUAD8      2812       1    7426    7439    7440    7427    8736    8737+
+           8738    8712
CQUAD8      2813       1    7427    7440    7441    7428    8738    8739+
+           8740    8714
CQUAD8      2814       1    7428    7441    7442    7429    8740    8741+
+           8742    8716
CQUAD8      2815       1    7429    7442    7443    7430    8742    8743+
+           8744    8718
CQUAD8      2816       1    7430    7443    7444    7431    8744    8745+
+           8746    8720
CQUAD8      2817       1    7431    7444    7445    7432    8746    8747+
+           8748    8722
CQUAD8      2818       1    7432    7445    7446    7433    8748    8749+
+           8750    8724
CQUAD8      2819       1    7433    7446    7447    7434    8750    8751+
+           8752    8726
CQUAD8      2820       1    7434    7447    7448    7435    8752    8753+
+           8754    8728
CQUAD8      2821       1    7435    7448    7449    7436    8754    8755+
+           8756    8730
CQUAD8      2822       1    7436    7449    7450    7437    8756    8757+
+           8758    8732
CQUAD8      2823       1    7437    7450    7451    7438    8758    8759+
+           8760    8734
CQUAD8      2824       1    7439    7452    7453    7440    8761    8762+
+           8763    8737
CQUAD8      2825       1    7440    7453    7454    7441    8763    8764+
+           8765    8739
CQUAD8      2826       1    7441    7454    7455    7442    8765    8766+
+           8767    8741
CQUAD8      2827       1    7442    7455    7456    7443    8767    8768+
+           8769    8743
CQUAD8      2828       1    7443    7456    7457    7444    8769    8770+
+           8771    8745
CQUAD8      2829       1    7444    7457    7458    7445    8771    8772+
+           8773    8747
CQUAD8      2830       1    7445    7458    7459    7446    8773    8774+
+           8775    8749
CQUAD8      2831       1    7446    7459    7460    7447    8775    8776+
+           8777    8751
CQUAD8      2832       1    7447    7460    7461    7448    8777    8778+
+           8779    8753
CQUAD8      2833       1    7448    7461    7462    7449    8779    8780+
+           8781    8755
CQUAD8      2834       1    7449    7462    7463    7450    8781    8782+
+           8783    8757
CQUAD8      2835       1    7450    7463    7464    7451    8783    8784+
+           8785    8759
CQUAD8      2836       1    7452    7465    7466    7453    8786    8787+
+           8788    8762
CQUAD8      2837       1    7453    7466    7467    7454    8788    8789+
+           8790    8764
CQUAD8      2838       1    7454    7467    7468    7455    8790    8791+
+           8792    8766
CQUAD8      2839       1    7455    7468    7469    7456    8792    8793+
+           8794    8768
CQUAD8      2840       1    7456    7469    7470    7457    8794    8795+
+           8796    8770
CQUAD8      2841       1    7457    7470    7471    7458    8796    8797+
+           8798    8772
CQUAD8      2842       1    7458    7471    7472    7459    8798    8799+
+           8800    8774
CQUAD8      2843       1    7459    7472    7473    7460    8800    8801+
+           8802    8776
CQUAD8      2844       1    7460    7473    7474    7461    8802    8803+
+           8804    8778
CQUAD8      2845       1    7461    7474    7475    7462    8804    8805+
+           8806    8780
CQUAD8      2846       1    7462    7475    7476    7463    8806    8807+
+           8808    8782
CQUAD8      2847       1    7463    7476    7477    7464    8808    8809+
+           8810    8784
CQUAD8      2848       1    7465    7478    7479    7466    8811    8812+
+           8813    8787
CQUAD8      2849       1    7466    7479    7480    7467    8813    8814+
+           8815    8789
CQUAD8      2850       1    7467    7480    7481    7468    8815    8816+
+           8817    8791
CQUAD8      2851       1    7468    7481    7482    7469    8817    8818+
+           8819    8793
CQUAD8      2852       1    7469    7482    7483    7470    8819    8820+
+           8821    8795
CQUAD8      2853       1    7470    7483    7484    7471    8821    8822+
+           8823    8797
CQUAD8      2854       1    7471    7484    7485    7472    8823    8824+
+           8825    8799
CQUAD8      2855       1    7472    7485    7486    7473    8825    8826+
+           8827    8801
CQUAD8      2856       1    7473    7486    7487    7474    8827    8828+
+           8829    8803
CQUAD8      2857       1    7474    7487    7488    7475    8829    8830+
+           8831    8805
CQUAD8      2858       1    7475    7488    7489    7476    8831    8832+
+           8833    8807
CQUAD8      2859       1    7476    7489    7490    7477    8833    8834+
+           8835    8809
CQUAD8      2860       1    7478    7491    7492    7479    8836    8837+
+           8838    8812
CQUAD8      2861       1    7479    7492    7493    7480    8838    8839+
+           8840    8814
CQUAD8      2862       1    7480    7493    7494    7481    8840    8841+
+           8842    8816
CQUAD8      2863       1    7481    7494    7495    7482    8842    8843+
+           8844    8818
CQUAD8      2864       1    7482    7495    7496    7483    8844    8845+
+           8846    8820
CQUAD8      2865       1    7483    7496    7497    7484    8846    8847+
+           8848    8822
CQUAD8      2866       1    7484    7497    7498    7485    8848    8849+
+           8850    8824
CQUAD8      2867       1    7485    7498    7499    7486    8850    8851+
+           8852    8826
CQUAD8      2868       1    7486    7499    7500    7487    8852    8853+
+           8854    8828
CQUAD8      2869       1    7487    7500    7501    7488    8854    8855+
+           8856    8830
CQUAD8      2870       1    7488    7501    7502    7489    8856    8857+
+           8858    8832
CQUAD8      2871       1    7489    7502    7503    7490    8858    8859+
+           8860    8834
CQUAD8      2872       1    7491    7504    7505    7492    8861    8862+
+           8863    8837
CQUAD8      2873       1    7492    7505    7506    7493    8863    8864+
+           8865    8839
CQUAD8      2874       1    7493    7506    7507    7494    8865    8866+
+           8867    8841
CQUAD8      2875       1    7494    7507    7508    7495    8867    8868+
+           8869    8843
CQUAD8      2876       1    7495    7508    7509    7496    8869    8870+
+           8871    8845
CQUAD8      2877       1    7496    7509    7510    7497    8871    8872+
+           8873    8847
CQUAD8      2878       1    7497    7510    7511    7498    8873    8874+
+           8875    8849
CQUAD8      2879       1    7498    7511    7512    7499    8875    8876+
+           8877    8851
CQUAD8      2880       1    7499    7512    7513    7500    8877    8878+
+           8879    8853
CQUAD8      2881       1    7500    7513    7514    7501    8879    8880+
+           8881    8855
CQUAD8      2882       1    7501    7514    7515    7502    8881    8882+
+           8883    8857
CQUAD8      2883       1    7502    7515    7516    7503    8883    8884+
+           8885    8859
CQUAD8      2884       1    7504    7517    7518    7505    8886    8887+
+           8888    8862
CQUAD8      2885       1    7505    7518    7519    7506    8888    8889+
+           8890    8864
CQUAD8      2886       1    7506    7519    7520    7507    8890    8891+
+           8892    8866
CQUAD8      2887       1    7507    7520    7521    7508    8892    8893+
+           8894    8868
CQUAD8      2888       1    7508    7521    7522    7509    8894    8895+
+           8896    8870
CQUAD8      2889       1    7509    7522    7523    7510    8896    8897+
+           8898    8872
CQUAD8      2890       1    7510    7523    7524    7511    8898    8899+
+           8900    8874
CQUAD8      2891       1    7511    7524    7525    7512    8900    8901+
+           8902    8876
CQUAD8      2892       1    7512    7525    7526    7513    8902    8903+
+           8904    8878
CQUAD8      2893       1    7513    7526    7527    7514    8904    8905+
+           8906    8880
CQUAD8      2894       1    7514    7527    7528    7515    8906    8907+
+           8908    8882
CQUAD8      2895       1    7515    7528    7529    7516    8908    8909+
+           8910    8884
CQUAD8      2896       1    7517    7530    7531    7518    8911    8912+
+           8913    8887
CQUAD8      2897       1    7518    7531    7532    7519    8913    8914+
+           8915    8889
CQUAD8      2898       1    7519    7532    7533    7520    8915    8916+
+           8917    8891
CQUAD8      2899       1    7520    7533    7534    7521    8917    8918+
+           8919    8893
CQUAD8      2900       1    7521    7534    7535    7522    8919    8920+
+           8921    8895
CQUAD8      2901       1    7522    7535    7536    7523    8921    8922+
+           8923    8897
CQUAD8      2902       1    7523    7536    7537    7524    8923    8924+
+           8925    8899
CQUAD8      2903       1    7524    7537    7538    7525    8925    8926+
+           8927    8901
CQUAD8      2904       1    7525    7538    7539    7526    8927    8928+
+           8929    8903
CQUAD8      2905       1    7526    7539    7540    7527    8929    8930+
+           8931    8905
CQUAD8      2906       1    7527    7540    7541    7528    8931    8932+
+           8933    8907
CQUAD8      2907       1    7528    7541    7542    7529    8933    8934+
+           8935    8909
CQUAD8      2908       1    7530    7543    7544    7531    8936    8937+
+           8938    8912
CQUAD8      2909       1    7531    7544    7545    7532    8938    8939+
+           8940    8914
CQUAD8      2910       1    7532    7545    7546    7533    8940    8941+
+           8942    8916
CQUAD8      2911       1    7533    7546    7547    7534    8942    8943+
+           8944    8918
CQUAD8      2912       1    7534    7547    7548    7535    8944    8945+
+           8946    8920
CQUAD8      2913       1    7535    7548    7549    7536    8946    8947+
+           8948    8922
CQUAD8      2914       1    7536    7549    7550    7537    8948    8949+
+           8950    8924
CQUAD8      2915       1    7537    7550    7551    7538    8950    8951+
+           8952    8926
CQUAD8      2916       1    7538    7551    7552    7539    8952    8953+
+           8954    8928
CQUAD8      2917       1    7539    7552    7553    7540    8954    8955+
+           8956    8930
CQUAD8      2918       1    7540    7553    7554    7541    8956    8957+
+           8958    8932
CQUAD8      2919       1    7541    7554    7555    7542    8958    8959+
+           8960    8934
CQUAD8      2920       1    7543    7556    7557    7544    8961    8962+
+           8963    8937
CQUAD8      2921       1    7544    7557    7558    7545    8963    8964+
+           8965    8939
CQUAD8      2922       1    7545    7558    7559    7546    8965    8966+
+           8967    8941
CQUAD8      2923       1    7546    7559    7560    7547    8967    8968+
+           8969    8943
CQUAD8      2924       1    7547    7560    7561    7548    8969    8970+
+           8971    8945
CQUAD8      2925       1    7548    7561    7562    7549    8971    8972+
+           8973    8947
CQUAD8      2926       1    7549    7562    7563    7550    8973    8974+
+           8975    8949
CQUAD8      2927       1    7550    7563    7564    7551    8975    8976+
+           8977    8951
CQUAD8      2928       1    7551    7564    7565    7552    8977    8978+
+           8979    8953
CQUAD8      2929       1    7552    7565    7566    7553    8979    8980+
+           8981    8955
CQUAD8      2930       1    7553    7566    7567    7554    8981    8982+
+           8983    8957
CQUAD8      2931       1    7554    7567    7568    7555    8983    8984+
+           8985    8959
CQUAD8      2932       1    7556    7569    7570    7557    8986    8987+
+           8988    8962
CQUAD8      2933       1    7557    7570    7571    7558    8988    8989+
+           8990    8964
CQUAD8      2934       1    7558    7571    7572    7559    8990    8991+
+           8992    8966
CQUAD8      2935       1    7559    7572    7573    7560    8992    8993+
+           8994    8968
CQUAD8      2936       1    7560    7573    7574    7561    8994    8995+
+           8996    8970
CQUAD8      2937       1    7561    7574    7575    7562    8996    8997+
+           8998    8972
CQUAD8      2938       1    7562    7575    7576    7563    8998    8999+
+           9000    8974
CQUAD8      2939       1    7563    7576    7577    7564    9000    9001+
+           9002    8976
CQUAD8      2940       1    7564    7577    7578    7565    9002    9003+
+           9004    8978
CQUAD8      2941       1    7565    7578    7579    7566    9004    9005+
+           9006    8980
CQUAD8      2942       1    7566    7579    7580    7567    9006    9007+
+           9008    8982
CQUAD8      2943       1    7567    7580    7581    7568    9008    9009+
+           9010    8984
CQUAD8      2944       1    7569    7582    7583    7570    9011    9012+
+           9013    8987
CQUAD8      2945       1    7570    7583    7584    7571    9013    9014+
+           9015    8989
CQUAD8      2946       1    7571    7584    7585    7572    9015    9016+
+           9017    8991
CQUAD8      2947       1    7572    7585    7586    7573    9017    9018+
+           9019    8993
CQUAD8      2948       1    7573    7586    7587    7574    9019    9020+
+           9021    8995
CQUAD8      2949       1    7574    7587    7588    7575    9021    9022+
+           9023    8997
CQUAD8      2950       1    7575    7588    7589    7576    9023    9024+
+           9025    8999
CQUAD8      2951       1    7576    7589    7590    7577    9025    9026+
+           9027    9001
CQUAD8      2952       1    7577    7590    7591    7578    9027    9028+
+           9029    9003
CQUAD8      2953       1    7578    7591    7592    7579    9029    9030+
+           9031    9005
CQUAD8      2954       1    7579    7592    7593    7580    9031    9032+
+           9033    9007
CQUAD8      2955       1    7580    7593    7594    7581    9033    9034+
+           9035    9009
CQUAD8      2956       1    7582    7595    7596    7583    9036    9037+
+           9038    9012
CQUAD8      2957       1    7583    7596    7597    7584    9038    9039+
+           9040    9014
CQUAD8      2958       1    7584    7597    7598    7585    9040    9041+
+           9042    9016
CQUAD8      2959       1    7585    7598    7599    7586    9042    9043+
+           9044    9018
CQUAD8      2960       1    7586    7599    7600    7587    9044    9045+
+           9046    9020
CQUAD8      2961       1    7587    7600    7601    7588    9046    9047+
+           9048    9022
CQUAD8      2962       1    7588    7601    7602    7589    9048    9049+
+           9050    9024
CQUAD8      2963       1    7589    7602    7603    7590    9050    9051+
+           9052    9026
CQUAD8      2964       1    7590    7603    7604    7591    9052    9053+
+           9054    9028
CQUAD8      2965       1    7591    7604    7605    7592    9054    9055+
+           9056    9030
CQUAD8      2966       1    7592    7605    7606    7593    9056    9057+
+           9058    9032
CQUAD8      2967       1    7593    7606    7607    7594    9058    9059+
+           9060    9034
CQUAD8      2968       1    7595    7608    7609    7596    9061    9062+
+           9063    9037
CQUAD8      2969       1    7596    7609    7610    7597    9063    9064+
+           9065    9039
CQUAD8      2970       1    7597    7610    7611    7598    9065    9066+
+           9067    9041
CQUAD8      2971       1    7598    7611    7612    7599    9067    9068+
+           9069    9043
CQUAD8      2972       1    7599    7612    7613    7600    9069    9070+
+           9071    9045
CQUAD8      2973       1    7600    7613    7614    7601    9071    9072+
+           9073    9047
CQUAD8      2974       1    7601    7614    7615    7602    9073    9074+
+           9075    9049
CQUAD8      2975       1    7602    7615    7616    7603    9075    9076+
+           9077    9051
CQUAD8      2976       1    7603    7616    7617    7604    9077    9078+
+           9079    9053
CQUAD8      2977       1    7604    7617    7618    7605    9079    9080+
+           9081    9055
CQUAD8      2978       1    7605    7618    7619    7606    9081    9082+
+           9083    9057
CQUAD8      2979       1    7606    7619    7620    7607    9083    9084+
+           9085    9059
CQUAD8      2980       1    7608    7621    7622    7609    9086    9087+
+           9088    9062
CQUAD8      2981       1    7609    7622    7623    7610    9088    9089+
+           9090    9064
CQUAD8      2982       1    7610    7623    7624    7611    9090    9091+
+           9092    9066
CQUAD8      2983       1    7611    7624    7625    7612    9092    9093+
+           9094    9068
CQUAD8      2984       1    7612    7625    7626    7613    9094    9095+
+           9096    9070
CQUAD8      2985       1    7613    7626    7627    7614    9096    9097+
+           9098    9072
CQUAD8      2986       1    7614    7627    7628    7615    9098    9099+
+           9100    9074
CQUAD8      2987       1    7615    7628    7629    7616    9100    9101+
+           9102    9076
CQUAD8      2988       1    7616    7629    7630    7617    9102    9103+
+           9104    9078
CQUAD8      2989       1    7617    7630    7631    7618    9104    9105+
+           9106    9080
CQUAD8      2990       1    7618    7631    7632    7619    9106    9107+
+           9108    9082
CQUAD8      2991       1    7619    7632    7633    7620    9108    9109+
+           9110    9084
CQUAD8      2992       1    7621    7634    7635    7622    9111    9112+
+           9113    9087
CQUAD8      2993       1    7622    7635    7636    7623    9113    9114+
+           9115    9089
CQUAD8      2994       1    7623    7636    7637    7624    9115    9116+
+           9117    9091
CQUAD8      2995       1    7624    7637    7638    7625    9117    9118+
+           9119    9093
CQUAD8      2996       1    7625    7638    7639    7626    9119    9120+
+           9121    9095
CQUAD8      2997       1    7626    7639    7640    7627    9121    9122+
+           9123    9097
CQUAD8      2998       1    7627    7640    7641    7628    9123    9124+
+           9125    9099
CQUAD8      2999       1    7628    7641    7642    7629    9125    9126+
+           9127    9101
CQUAD8      3000       1    7629    7642    7643    7630    9127    9128+
+           9129    9103
CQUAD8      3001       1    7630    7643    7644    7631    9129    9130+
+           9131    9105
CQUAD8      3002       1    7631    7644    7645    7632    9131    9132+
+           9133    9107
CQUAD8      3003       1    7632    7645    7646    7633    9133    9134+
+           9135    9109
CQUAD8      3004       1    7634    7647    7648    7635    9136    9137+
+           9138    9112
CQUAD8      3005       1    7635    7648    7649    7636    9138    9139+
+           9140    9114
CQUAD8      3006       1    7636    7649    7650    7637    9140    9141+
+           9142    9116
CQUAD8      3007       1    7637    7650    7651    7638    9142    9143+
+           9144    9118
CQUAD8      3008       1    7638    7651    7652    7639    9144    9145+
+           9146    9120
CQUAD8      3009       1    7639    7652    7653    7640    9146    9147+
+           9148    9122
CQUAD8      3010       1    7640    7653    7654    7641    9148    9149+
+           9150    9124
CQUAD8      3011       1    7641    7654    7655    7642    9150    9151+
+           9152    9126
CQUAD8      3012       1    7642    7655    7656    7643    9152    9153+
+           9154    9128
CQUAD8      3013       1    7643    7656    7657    7644    9154    9155+
+           9156    9130
CQUAD8      3014       1    7644    7657    7658    7645    9156    9157+
+           9158    9132
CQUAD8      3015       1    7645    7658    7659    7646    9158    9159+
+           9160    9134
CQUAD8      3016       1    7647    7660    7661    7648    9161    9162+
+           9163    9137
CQUAD8      3017       1    7648    7661    7662    7649    9163    9164+
+           9165    9139
CQUAD8      3018       1    7649    7662    7663    7650    9165    9166+
+           9167    9141
CQUAD8      3019       1    7650    7663    7664    7651    9167    9168+
+           9169    9143
CQUAD8      3020       1    7651    7664    7665    7652    9169    9170+
+           9171    9145
CQUAD8      3021       1    7652    7665    7666    7653    9171    9172+
+           9173    9147
CQUAD8      3022       1    7653    7666    7667    7654    9173    9174+
+           9175    9149
CQUAD8      3023       1    7654    7667    7668    7655    9175    9176+
+           9177    9151
CQUAD8      3024       1    7655    7668    7669    7656    9177    9178+
+           9179    9153
CQUAD8      3025       1    7656    7669    7670    7657    9179    9180+
+           9181    9155
CQUAD8      3026       1    7657    7670    7671    7658    9181    9182+
+           9183    9157
CQUAD8      3027       1    7658    7671    7672    7659    9183    9184+
+           9185    9159
CQUAD8      3028       1    7660    7673    7674    7661    9186    9187+
+           9188    9162
CQUAD8      3029       1    7661    7674    7675    7662    9188    9189+
+           9190    9164
CQUAD8      3030       1    7662    7675    7676    7663    9190    9191+
+           9192    9166
CQUAD8      3031       1    7663    7676    7677    7664    9192    9193+
+           9194    9168
CQUAD8      3032       1    7664    7677    7678    7665    9194    9195+
+           9196    9170
CQUAD8      3033       1    7665    7678    7679    7666    9196    9197+
+           9198    9172
CQUAD8      3034       1    7666    7679    7680    7667    9198    9199+
+           9200    9174
CQUAD8      3035       1    7667    7680    7681    7668    9200    9201+
+           9202    9176
CQUAD8      3036       1    7668    7681    7682    7669    9202    9203+
+           9204    9178
CQUAD8      3037       1    7669    7682    7683    7670    9204    9205+
+           9206    9180
CQUAD8      3038       1    7670    7683    7684    7671    9206    9207+
+           9208    9182
CQUAD8      3039       1    7671    7684    7685    7672    9208    9209+
+           9210    9184
CQUAD8      3040       1    7673    7686    7687    7674    9211    9212+
+           9213    9187
CQUAD8      3041       1    7674    7687    7688    7675    9213    9214+
+           9215    9189
CQUAD8      3042       1    7675    7688    7689    7676    9215    9216+
+           9217    9191
CQUAD8      3043       1    7676    7689    7690    7677    9217    9218+
+           9219    9193
CQUAD8      3044       1    7677    7690    7691    7678    9219    9220+
+           9221    9195
CQUAD8      3045       1    7678    7691    7692    7679    9221    9222+
+           9223    9197
CQUAD8      3046       1    7679    7692    7693    7680    9223    9224+
+           9225    9199
CQUAD8      3047       1    7680    7693    7694    7681    9225    9226+
+           9227    9201
CQUAD8      3048       1    7681    7694    7695    7682    9227    9228+
+           9229    9203
CQUAD8      3049       1    7682    7695    7696    7683    9229    9230+
+           9231    9205
CQUAD8      3050       1    7683    7696    7697    7684    9231    9232+
+           9233    9207
CQUAD8      3051       1    7684    7697    7698    7685    9233    9234+
+           9235    9209
CQUAD8      3052       1    7686    7699    7700    7687    9236    9237+
+           9238    9212
CQUAD8      3053       1    7687    7700    7701    7688    9238    9239+
+           9240    9214
CQUAD8      3054       1    7688    7701    7702    7689    9240    9241+
+           9242    9216
CQUAD8      3055       1    7689    7702    7703    7690    9242    9243+
+           9244    9218
CQUAD8      3056       1    7690    7703    7704    7691    9244    9245+
+           9246    9220
CQUAD8      3057       1    7691    7704    7705    7692    9246    9247+
+           9248    9222
CQUAD8      3058       1    7692    7705    7706    7693    9248    9249+
+           9250    9224
CQUAD8      3059       1    7693    7706    7707    7694    9250    9251+
+           9252    9226
CQUAD8      3060       1    7694    7707    7708    7695    9252    9253+
+           9254    9228
CQUAD8      3061       1    7695    7708    7709    7696    9254    9255+
+           9256    9230
CQUAD8      3062       1    7696    7709    7710    7697    9256    9257+
+           9258    9232
CQUAD8      3063       1    7697    7710    7711    7698    9258    9259+
+           9260    9234
CQUAD8      3064       1    7699    7712    7713    7700    9261    9262+
+           9263    9237
CQUAD8      3065       1    7700    7713    7714    7701    9263    9264+
+           9265    9239
CQUAD8      3066       1    7701    7714    7715    7702    9265    9266+
+           9267    9241
CQUAD8      3067       1    7702    7715    7716    7703    9267    9268+
+           9269    9243
CQUAD8      3068       1    7703    7716    7717    7704    9269    9270+
+           9271    9245
CQUAD8      3069       1    7704    7717    7718    7705    9271    9272+
+           9273    9247
CQUAD8      3070       1    7705    7718    7719    7706    9273    9274+
+           9275    9249
CQUAD8      3071       1    7706    7719    7720    7707    9275    9276+
+           9277    9251
CQUAD8      3072       1    7707    7720    7721    7708    9277    9278+
+           9279    9253
CQUAD8      3073       1    7708    7721    7722    7709    9279    9280+
+           9281    9255
CQUAD8      3074       1    7709    7722    7723    7710    9281    9282+
+           9283    9257
CQUAD8      3075       1    7710    7723    7724    7711    9283    9284+
+           9285    9259
CQUAD8      3076       1    7712    7725    7726    7713    9286    9287+
+           9288    9262
CQUAD8      3077       1    7713    7726    7727    7714    9288    9289+
+           9290    9264
CQUAD8      3078       1    7714    7727    7728    7715    9290    9291+
+           9292    9266
CQUAD8      3079       1    7715    7728    7729    7716    9292    9293+
+           9294    9268
CQUAD8      3080       1    7716    7729    7730    7717    9294    9295+
+           9296    9270
CQUAD8      3081       1    7717    7730    7731    7718    9296    9297+
+           9298    9272
CQUAD8      3082       1    7718    7731    7732    7719    9298    9299+
+           9300    9274
CQUAD8      3083       1    7719    7732    7733    7720    9300    9301+
+           9302    9276
CQUAD8      3084       1    7720    7733    7734    7721    9302    9303+
+           9304    9278
CQUAD8      3085       1    7721    7734    7735    7722    9304    9305+
+           9306    9280
CQUAD8      3086       1    7722    7735    7736    7723    9306    9307+
+           9308    9282
CQUAD8      3087       1    7723    7736    7737    7724    9308    9309+
+           9310    9284
CQUAD8      3088       1    7725    7738    7739    7726    9311    9312+
+           9313    9287
CQUAD8      3089       1    7726    7739    7740    7727    9313    9314+
+           9315    9289
CQUAD8      3090       1    7727    7740    7741    7728    9315    9316+
+           9317    9291
CQUAD8      3091       1    7728    7741    7742    7729    9317    9318+
+           9319    9293
CQUAD8      3092       1    7729    7742    7743    7730    9319    9320+
+           9321    9295
CQUAD8      3093       1    7730    7743    7744    7731    9321    9322+
+           9323    9297
CQUAD8      3094       1    7731    7744    7745    7732    9323    9324+
+           9325    9299
CQUAD8      3095       1    7732    7745    7746    7733    9325    9326+
+           9327    9301
CQUAD8      3096       1    7733    7746    7747    7734    9327    9328+
+           9329    9303
CQUAD8      3097       1    7734    7747    7748    7735    9329    9330+
+           9331    9305
CQUAD8      3098       1    7735    7748    7749    7736    9331    9332+
+           9333    9307
CQUAD8      3099       1    7736    7749    7750    7737    9333    9334+
+           9335    9309
CQUAD8      3100       1    7738    7751    7752    7739    9336    9337+
+           9338    9312
CQUAD8      3101       1    7739    7752    7753    7740    9338    9339+
+           9340    9314
CQUAD8      3102       1    7740    7753    7754    7741    9340    9341+
+           9342    9316
CQUAD8      3103       1    7741    7754    7755    7742    9342    9343+
+           9344    9318
CQUAD8      3104       1    7742    7755    7756    7743    9344    9345+
+           9346    9320
CQUAD8      3105       1    7743    7756    7757    7744    9346    9347+
+           9348    9322
CQUAD8      3106       1    7744    7757    7758    7745    9348    9349+
+           9350    9324
CQUAD8      3107       1    7745    7758    7759    7746    9350    9351+
+           9352    9326
CQUAD8      3108       1    7746    7759    7760    7747    9352    9353+
+           9354    9328
CQUAD8      3109       1    7747    7760    7761    7748    9354    9355+
+           9356    9330
CQUAD8      3110       1    7748    7761    7762    7749    9356    9357+
+           9358    9332
CQUAD8      3111       1    7749    7762    7763    7750    9358    9359+
+           9360    9334
CQUAD8      3112       1    7751    7764    7765    7752    9361    9362+
+           9363    9337
CQUAD8      3113       1    7752    7765    7766    7753    9363    9364+
+           9365    9339
CQUAD8      3114       1    7753    7766    7767    7754    9365    9366+
+           9367    9341
CQUAD8      3115       1    7754    7767    7768    7755    9367    9368+
+           9369    9343
CQUAD8      3116       1    7755    7768    7769    7756    9369    9370+
+           9371    9345
CQUAD8      3117       1    7756    7769    7770    7757    9371    9372+
+           9373    9347
CQUAD8      3118       1    7757    7770    7771    7758    9373    9374+
+           9375    9349
CQUAD8      3119       1    7758    7771    7772    7759    9375    9376+
+           9377    9351
CQUAD8      3120       1    7759    7772    7773    7760    9377    9378+
+           9379    9353
CQUAD8      3121       1    7760    7773    7774    7761    9379    9380+
+           9381    9355
CQUAD8      3122       1    7761    7774    7775    7762    9381    9382+
+           9383    9357
CQUAD8      3123       1    7762    7775    7776    7763    9383    9384+
+           9385    9359
CQUAD8      3124       1    7764    7777    7778    7765    9386    9387+
+           9388    9362
CQUAD8      3125       1    7765    7778    7779    7766    9388    9389+
+           9390    9364
CQUAD8      3126       1    7766    7779    7780    7767    9390    9391+
+           9392    9366
CQUAD8      3127       1    7767    7780    7781    7768    9392    9393+
+           9394    9368
CQUAD8      3128       1    7768    7781    7782    7769    9394    9395+
+           9396    9370
CQUAD8      3129       1    7769    7782    7783    7770    9396    9397+
+           9398    9372
CQUAD8      3130       1    7770    7783    7784    7771    9398    9399+
+           9400    9374
CQUAD8      3131       1    7771    7784    7785    7772    9400    9401+
+           9402    9376
CQUAD8      3132       1    7772    7785    7786    7773    9402    9403+
+           9404    9378
CQUAD8      3133       1    7773    7786    7787    7774    9404    9405+
+           9406    9380
CQUAD8      3134       1    7774    7787    7788    7775    9406    9407+
+           9408    9382
CQUAD8      3135       1    7775    7788    7789    7776    9408    9409+
+           9410    9384
CQUAD8      3136       1    7777    7790    7791    7778    9411    9412+
+           9413    9387
CQUAD8      3137       1    7778    7791    7792    7779    9413    9414+
+           9415    9389
CQUAD8      3138       1    7779    7792    7793    7780    9415    9416+
+           9417    9391
CQUAD8      3139       1    7780    7793    7794    7781    9417    9418+
+           9419    9393
CQUAD8      3140       1    7781    7794    7795    7782    9419    9420+
+           9421    9395
CQUAD8      3141       1    7782    7795    7796    7783    9421    9422+
+           9423    9397
CQUAD8      3142       1    7783    7796    7797    7784    9423    9424+
+           9425    9399
CQUAD8      3143       1    7784    7797    7798    7785    9425    9426+
+           9427    9401
CQUAD8      3144       1    7785    7798    7799    7786    9427    9428+
+           9429    9403
CQUAD8      3145       1    7786    7799    7800    7787    9429    9430+
+           9431    9405
CQUAD8      3146       1    7787    7800    7801    7788    9431    9432+
+           9433    9407
CQUAD8      3147       1    7788    7801    7802    7789    9433    9434+
+           9435    9409
CQUAD8      3148       1    7790    7803    7804    7791    9436    9437+
+           9438    9412
CQUAD8      3149       1    7791    7804    7805    7792    9438    9439+
+           9440    9414
CQUAD8      3150       1    7792    7805    7806    7793    9440    9441+
+           9442    9416
CQUAD8      3151       1    7793    7806    7807    7794    9442    9443+
+           9444    9418
CQUAD8      3152       1    7794    7807    7808    7795    9444    9445+
+           9446    9420
CQUAD8      3153       1    7795    7808    7809    7796    9446    9447+
+           9448    9422
CQUAD8      3154       1    7796    7809    7810    7797    9448    9449+
+           9450    9424
CQUAD8      3155       1    7797    7810    7811    7798    9450    9451+
+           9452    9426
CQUAD8      3156       1    7798    7811    7812    7799    9452    9453+
+           9454    9428
CQUAD8      3157       1    7799    7812    7813    7800    9454    9455+
+           9456    9430
CQUAD8      3158       1    7800    7813    7814    7801    9456    9457+
+           9458    9432
CQUAD8      3159       1    7801    7814    7815    7802    9458    9459+
+           9460    9434
CQUAD8      3160       1    7803    7816    7817    7804    9461    9462+
+           9463    9437
CQUAD8      3161       1    7804    7817    7818    7805    9463    9464+
+           9465    9439
CQUAD8      3162       1    7805    7818    7819    7806    9465    9466+
+           9467    9441
CQUAD8      3163       1    7806    7819    7820    7807    9467    9468+
+           9469    9443
CQUAD8      3164       1    7807    7820    7821    7808    9469    9470+
+           9471    9445
CQUAD8      3165       1    7808    7821    7822    7809    9471    9472+
+           9473    9447
CQUAD8      3166       1    7809    7822    7823    7810    9473    9474+
+           9475    9449
CQUAD8      3167       1    7810    7823    7824    7811    9475    9476+
+           9477    9451
CQUAD8      3168       1    7811    7824    7825    7812    9477    9478+
+           9479    9453
CQUAD8      3169       1    7812    7825    7826    7813    9479    9480+
+           9481    9455
CQUAD8      3170       1    7813    7826    7827    7814    9481    9482+
+           9483    9457
CQUAD8      3171       1    7814    7827    7828    7815    9483    9484+
+           9485    9459
CQUAD8      3172       1    7816    7829    7830    7817    9486    9487+
+           9488    9462
CQUAD8      3173       1    7817    7830    7831    7818    9488    9489+
+           9490    9464
CQUAD8      3174       1    7818    7831    7832    7819    9490    9491+
+           9492    9466
CQUAD8      3175       1    7819    7832    7833    7820    9492    9493+
+           9494    9468
CQUAD8      3176       1    7820    7833    7834    7821    9494    9495+
+           9496    9470
CQUAD8      3177       1    7821    7834    7835    7822    9496    9497+
+           9498    9472
CQUAD8      3178       1    7822    7835    7836    7823    9498    9499+
+           9500    9474
CQUAD8      3179       1    7823    7836    7837    7824    9500    9501+
+           9502    9476
CQUAD8      3180       1    7824    7837    7838    7825    9502    9503+
+           9504    9478
CQUAD8      3181       1    7825    7838    7839    7826    9504    9505+
+           9506    9480
CQUAD8      3182       1    7826    7839    7840    7827    9506    9507+
+           9508    9482
CQUAD8      3183       1    7827    7840    7841    7828    9508    9509+
+           9510    9484
CQUAD8      3184       1    7829    7842    7843    7830    9511    9512+
+           9513    9487
CQUAD8      3185       1    7830    7843    7844    7831    9513    9514+
+           9515    9489
CQUAD8      3186       1    7831    7844    7845    7832    9515    9516+
+           9517    9491
CQUAD8      3187       1    7832    7845    7846    7833    9517    9518+
+           9519    9493
CQUAD8      3188       1    7833    7846    7847    7834    9519    9520+
+           9521    9495
CQUAD8      3189       1    7834    7847    7848    7835    9521    9522+
+           9523    9497
CQUAD8      3190       1    7835    7848    7849    7836    9523    9524+
+           9525    9499
CQUAD8      3191       1    7836    7849    7850    7837    9525    9526+
+           9527    9501
CQUAD8      3192       1    7837    7850    7851    7838    9527    9528+
+           9529    9503
CQUAD8      3193       1    7838    7851    7852    7839    9529    9530+
+           9531    9505
CQUAD8      3194       1    7839    7852    7853    7840    9531    9532+
+           9533    9507
CQUAD8      3195       1    7840    7853    7854    7841    9533    9534+
+           9535    9509
CQUAD8      3196       1    7842    7855    7856    7843    9536    9537+
+           9538    9512
CQUAD8      3197       1    7843    7856    7857    7844    9538    9539+
+           9540    9514
CQUAD8      3198       1    7844    7857    7858    7845    9540    9541+
+           9542    9516
CQUAD8      3199       1    7845    7858    7859    7846    9542    9543+
+           9544    9518
CQUAD8      3200       1    7846    7859    7860    7847    9544    9545+
+           9546    9520
CQUAD8      3201       1    7847    7860    7861    7848    9546    9547+
+           9548    9522
CQUAD8      3202       1    7848    7861    7862    7849    9548    9549+
+           9550    9524
CQUAD8      3203       1    7849    7862    7863    7850    9550    9551+
+           9552    9526
CQUAD8      3204       1    7850    7863    7864    7851    9552    9553+
+           9554    9528
CQUAD8      3205       1    7851    7864    7865    7852    9554    9555+
+           9556    9530
CQUAD8      3206       1    7852    7865    7866    7853    9556    9557+
+           9558    9532
CQUAD8      3207       1    7853    7866    7867    7854    9558    9559+
+           9560    9534
CQUAD8      3208       1    7855    7868    7869    7856    9561    9562+
+           9563    9537
CQUAD8      3209       1    7856    7869    7870    7857    9563    9564+
+           9565    9539
CQUAD8      3210       1    7857    7870    7871    7858    9565    9566+
+           9567    9541
CQUAD8      3211       1    7858    7871    7872    7859    9567    9568+
+           9569    9543
CQUAD8      3212       1    7859    7872    7873    7860    9569    9570+
+           9571    9545
CQUAD8      3213       1    7860    7873    7874    7861    9571    9572+
+           9573    9547
CQUAD8      3214       1    7861    7874    7875    7862    9573    9574+
+           9575    9549
CQUAD8      3215       1    7862    7875    7876    7863    9575    9576+
+           9577    9551
CQUAD8      3216       1    7863    7876    7877    7864    9577    9578+
+           9579    9553
CQUAD8      3217       1    7864    7877    7878    7865    9579    9580+
+           9581    9555
CQUAD8      3218       1    7865    7878    7879    7866    9581    9582+
+           9583    9557
CQUAD8      3219       1    7866    7879    7880    7867    9583    9584+
+           9585    9559
CQUAD8      3220       1    7868    7881    7882    7869    9586    9587+
+           9588    9562
CQUAD8      3221       1    7869    7882    7883    7870    9588    9589+
+           9590    9564
CQUAD8      3222       1    7870    7883    7884    7871    9590    9591+
+           9592    9566
CQUAD8      3223       1    7871    7884    7885    7872    9592    9593+
+           9594    9568
CQUAD8      3224       1    7872    7885    7886    7873    9594    9595+
+           9596    9570
CQUAD8      3225       1    7873    7886    7887    7874    9596    9597+
+           9598    9572
CQUAD8      3226       1    7874    7887    7888    7875    9598    9599+
+           9600    9574
CQUAD8      3227       1    7875    7888    7889    7876    9600    9601+
+           9602    9576
CQUAD8      3228       1    7876    7889    7890    7877    9602    9603+
+           9604    9578
CQUAD8      3229       1    7877    7890    7891    7878    9604    9605+
+           9606    9580
CQUAD8      3230       1    7878    7891    7892    7879    9606    9607+
+           9608    9582
CQUAD8      3231       1    7879    7892    7893    7880    9608    9609+
+           9610    9584
CQUAD8      3232       1    7881    7894    7895    7882    9611    9612+
+           9613    9587
CQUAD8      3233       1    7882    7895    7896    7883    9613    9614+
+           9615    9589
CQUAD8      3234       1    7883    7896    7897    7884    9615    9616+
+           9617    9591
CQUAD8      3235       1    7884    7897    7898    7885    9617    9618+
+           9619    9593
CQUAD8      3236       1    7885    7898    7899    7886    9619    9620+
+           9621    9595
CQUAD8      3237       1    7886    7899    7900    7887    9621    9622+
+           9623    9597
CQUAD8      3238       1    7887    7900    7901    7888    9623    9624+
+           9625    9599
CQUAD8      3239       1    7888    7901    7902    7889    9625    9626+
+           9627    9601
CQUAD8      3240       1    7889    7902    7903    7890    9627    9628+
+           9629    9603
CQUAD8      3241       1    7890    7903    7904    7891    9629    9630+
+           9631    9605
CQUAD8      3242       1    7891    7904    7905    7892    9631    9632+
+           9633    9607
CQUAD8      3243       1    7892    7905    7906    7893    9633    9634+
+           9635    9609
CQUAD8      3244       1    7894    7907    7908    7895    9636    9637+
+           9638    9612
CQUAD8      3245       1    7895    7908    7909    7896    9638    9639+
+           9640    9614
CQUAD8      3246       1    7896    7909    7910    7897    9640    9641+
+           9642    9616
CQUAD8      3247       1    7897    7910    7911    7898    9642    9643+
+           9644    9618
CQUAD8      3248       1    7898    7911    7912    7899    9644    9645+
+           9646    9620
CQUAD8      3249       1    7899    7912    7913    7900    9646    9647+
+           9648    9622
CQUAD8      3250       1    7900    7913    7914    7901    9648    9649+
+           9650    9624
CQUAD8      3251       1    7901    7914    7915    7902    9650    9651+
+           9652    9626
CQUAD8      3252       1    7902    7915    7916    7903    9652    9653+
+           9654    9628
CQUAD8      3253       1    7903    7916    7917    7904    9654    9655+
+           9656    9630
CQUAD8      3254       1    7904    7917    7918    7905    9656    9657+
+           9658    9632
CQUAD8      3255       1    7905    7918    7919    7906    9658    9659+
+           9660    9634
CQUAD8      3256       1    7907    7920    7921    7908    9661    9662+
+           9663    9637
CQUAD8      3257       1    7908    7921    7922    7909    9663    9664+
+           9665    9639
CQUAD8      3258       1    7909    7922    7923    7910    9665    9666+
+           9667    9641
CQUAD8      3259       1    7910    7923    7924    7911    9667    9668+
+           9669    9643
CQUAD8      3260       1    7911    7924    7925    7912    9669    9670+
+           9671    9645
CQUAD8      3261       1    7912    7925    7926    7913    9671    9672+
+           9673    9647
CQUAD8      3262       1    7913    7926    7927    7914    9673    9674+
+           9675    9649
CQUAD8      3263       1    7914    7927    7928    7915    9675    9676+
+           9677    9651
CQUAD8      3264       1    7915    7928    7929    7916    9677    9678+
+           9679    9653
CQUAD8      3265       1    7916    7929    7930    7917    9679    9680+
+           9681    9655
CQUAD8      3266       1    7917    7930    7931    7918    9681    9682+
+           9683    9657
CQUAD8      3267       1    7918    7931    7932    7919    9683    9684+
+           9685    9659
CQUAD8      3268       1    7920    7933    7934    7921    9686    9687+
+           9688    9662
CQUAD8      3269       1    7921    7934    7935    7922    9688    9689+
+           9690    9664
CQUAD8      3270       1    7922    7935    7936    7923    9690    9691+
+           9692    9666
CQUAD8      3271       1    7923    7936    7937    7924    9692    9693+
+           9694    9668
CQUAD8      3272       1    7924    7937    7938    7925    9694    9695+
+           9696    9670
CQUAD8      3273       1    7925    7938    7939    7926    9696    9697+
+           9698    9672
CQUAD8      3274       1    7926    7939    7940    7927    9698    9699+
+           9700    9674
CQUAD8      3275       1    7927    7940    7941    7928    9700    9701+
+           9702    9676
CQUAD8      3276       1    7928    7941    7942    7929    9702    9703+
+           9704    9678
CQUAD8      3277       1    7929    7942    7943    7930    9704    9705+
+           9706    9680
CQUAD8      3278       1    7930    7943    7944    7931    9706    9707+
+           9708    9682
CQUAD8      3279       1    7931    7944    7945    7932    9708    9709+
+           9710    9684
CQUAD8      3280       1    7933    7946    7947    7934    9711    9712+
+           9713    9687
CQUAD8      3281       1    7934    7947    7948    7935    9713    9714+
+           9715    9689
CQUAD8      3282       1    7935    7948    7949    7936    9715    9716+
+           9717    9691
CQUAD8      3283       1    7936    7949    7950    7937    9717    9718+
+           9719    9693
CQUAD8      3284       1    7937    7950    7951    7938    9719    9720+
+           9721    9695
CQUAD8      3285       1    7938    7951    7952    7939    9721    9722+
+           9723    9697
CQUAD8      3286       1    7939    7952    7953    7940    9723    9724+
+           9725    9699
CQUAD8      3287       1    7940    7953    7954    7941    9725    9726+
+           9727    9701
CQUAD8      3288       1    7941    7954    7955    7942    9727    9728+
+           9729    9703
CQUAD8      3289       1    7942    7955    7956    7943    9729    9730+
+           9731    9705
CQUAD8      3290       1    7943    7956    7957    7944    9731    9732+
+           9733    9707
CQUAD8      3291       1    7944    7957    7958    7945    9733    9734+
+           9735    9709
CQUAD8      3292       1    7946    7959    7960    7947    9736    9737+
+           9738    9712
CQUAD8      3293       1    7947    7960    7961    7948    9738    9739+
+           9740    9714
CQUAD8      3294       1    7948    7961    7962    7949    9740    9741+
+           9742    9716
CQUAD8      3295       1    7949    7962    7963    7950    9742    9743+
+           9744    9718
CQUAD8      3296       1    7950    7963    7964    7951    9744    9745+
+           9746    9720
CQUAD8      3297       1    7951    7964    7965    7952    9746    9747+
+           9748    9722
CQUAD8      3298       1    7952    7965    7966    7953    9748    9749+
+           9750    9724
CQUAD8      3299       1    7953    7966    7967    7954    9750    9751+
+           9752    9726
CQUAD8      3300       1    7954    7967    7968    7955    9752    9753+
+           9754    9728
CQUAD8      3301       1    7955    7968    7969    7956    9754    9755+
+           9756    9730
CQUAD8      3302       1    7956    7969    7970    7957    9756    9757+
+           9758    9732
CQUAD8      3303       1    7957    7970    7971    7958    9758    9759+
+           9760    9734
CQUAD8      3304       1    7959    7972    7973    7960    9761    9762+
+           9763    9737
CQUAD8      3305       1    7960    7973    7974    7961    9763    9764+
+           9765    9739
CQUAD8      3306       1    7961    7974    7975    7962    9765    9766+
+           9767    9741
CQUAD8      3307       1    7962    7975    7976    7963    9767    9768+
+           9769    9743
CQUAD8      3308       1    7963    7976    7977    7964    9769    9770+
+           9771    9745
CQUAD8      3309       1    7964    7977    7978    7965    9771    9772+
+           9773    9747
CQUAD8      3310       1    7965    7978    7979    7966    9773    9774+
+           9775    9749
CQUAD8      3311       1    7966    7979    7980    7967    9775    9776+
+           9777    9751
CQUAD8      3312       1    7967    7980    7981    7968    9777    9778+
+           9779    9753
CQUAD8      3313       1    7968    7981    7982    7969    9779    9780+
+           9781    9755
CQUAD8      3314       1    7969    7982    7983    7970    9781    9782+
+           9783    9757
CQUAD8      3315       1    7970    7983    7984    7971    9783    9784+
+           9785    9759
CQUAD8      3316       1    7972    7985    7986    7973    9786    9787+
+           9788    9762
CQUAD8      3317       1    7973    7986    7987    7974    9788    9789+
+           9790    9764
CQUAD8      3318       1    7974    7987    7988    7975    9790    9791+
+           9792    9766
CQUAD8      3319       1    7975    7988    7989    7976    9792    9793+
+           9794    9768
CQUAD8      3320       1    7976    7989    7990    7977    9794    9795+
+           9796    9770
CQUAD8      3321       1    7977    7990    7991    7978    9796    9797+
+           9798    9772
CQUAD8      3322       1    7978    7991    7992    7979    9798    9799+
+           9800    9774
CQUAD8      3323       1    7979    7992    7993    7980    9800    9801+
+           9802    9776
CQUAD8      3324       1    7980    7993    7994    7981    9802    9803+
+           9804    9778
CQUAD8      3325       1    7981    7994    7995    7982    9804    9805+
+           9806    9780
CQUAD8      3326       1    7982    7995    7996    7983    9806    9807+
+           9808    9782
CQUAD8      3327       1    7983    7996    7997    7984    9808    9809+
+           9810    9784
CQUAD8      3328       1    7985    7998    7999    7986    9811    9812+
+           9813    9787
CQUAD8      3329       1    7986    7999    8000    7987    9813    9814+
+           9815    9789
CQUAD8      3330       1    7987    8000    8001    7988    9815    9816+
+           9817    9791
CQUAD8      3331       1    7988    8001    8002    7989    9817    9818+
+           9819    9793
CQUAD8      3332       1    7989    8002    8003    7990    9819    9820+
+           9821    9795
CQUAD8      3333       1    7990    8003    8004    7991    9821    9822+
+           9823    9797
CQUAD8      3334       1    7991    8004    8005    7992    9823    9824+
+           9825    9799
CQUAD8      3335       1    7992    8005    8006    7993    9825    9826+
+           9827    9801
CQUAD8      3336       1    7993    8006    8007    7994    9827    9828+
+           9829    9803
CQUAD8      3337       1    7994    8007    8008    7995    9829    9830+
+           9831    9805
CQUAD8      3338       1    7995    8008    8009    7996    9831    9832+
+           9833    9807
CQUAD8      3339       1    7996    8009    8010    7997    9833    9834+
+           9835    9809
CQUAD8      3340       1    7998    8011    8012    7999    9836    9837+
+           9838    9812
CQUAD8      3341       1    7999    8012    8013    8000    9838    9839+
+           9840    9814
CQUAD8      3342       1    8000    8013    8014    8001    9840    9841+
+           9842    9816
CQUAD8      3343       1    8001    8014    8015    8002    9842    9843+
+           9844    9818
CQUAD8      3344       1    8002    8015    8016    8003    9844    9845+
+           9846    9820
CQUAD8      3345       1    8003    8016    8017    8004    9846    9847+
+           9848    9822
CQUAD8      3346       1    8004    8017    8018    8005    9848    9849+
+           9850    9824
CQUAD8      3347       1    8005    8018    8019    8006    9850    9851+
+           9852    9826
CQUAD8      3348       1    8006    8019    8020    8007    9852    9853+
+           9854    9828
CQUAD8      3349       1    8007    8020    8021    8008    9854    9855+
+           9856    9830
CQUAD8      3350       1    8008    8021    8022    8009    9856    9857+
+           9858    9832
CQUAD8      3351       1    8009    8022    8023    8010    9858    9859+
+           9860    9834
CQUAD8      3352       1   10820   10573    7062   10798   10647    9861+
+           9862   10799
CQUAD8      3353       1   10573   10574    7075    7062   10648    9863+
+           8024    9861
CQUAD8      3354       1   10574   10575    7088    7075   10649    9864+
+           8061    9863
CQUAD8      3355       1   10575   10576    7101    7088   10650    9865+
+           8086    9864
CQUAD8      3356       1   10576   10577    7114    7101   10651    9866+
+           8111    9865
CQUAD8      3357       1   10577   10578    7127    7114   10652    9867+
+           8136    9866
CQUAD8      3358       1   10578   10579    7140    7127   10653    9868+
+           8161    9867
CQUAD8      3359       1   10579   10580    7153    7140   10654    9869+
+           8186    9868
CQUAD8      3360       1   10580   10581    7166    7153   10655    9870+
+           8211    9869
CQUAD8      3361       1   10581   10582    7179    7166   10656    9871+
+           8236    9870
CQUAD8      3362       1   10582   10583    7192    7179   10657    9872+
+           8261    9871
CQUAD8      3363       1   10583   10584    7205    7192   10658    9873+
+           8286    9872
CQUAD8      3364       1   10584   10585    7218    7205   10659    9874+
+           8311    9873
CQUAD8      3365       1   10585   10586    7231    7218   10660    9875+
+           8336    9874
CQUAD8      3366       1   10586   10587    7244    7231   10661    9876+
+           8361    9875
CQUAD8      3367       1   10587   10588    7257    7244   10662    9877+
+           8386    9876
CQUAD8      3368       1   10588   10589    7270    7257   10663    9878+
+           8411    9877
CQUAD8      3369       1   10589   10590    7283    7270   10664    9879+
+           8436    9878
CQUAD8      3370       1   10590   10591    7296    7283   10665    9880+
+           8461    9879
CQUAD8      3371       1   10591   10592    7309    7296   10666    9881+
+           8486    9880
CQUAD8      3372       1   10592   10593    7322    7309   10667    9882+
+           8511    9881
CQUAD8      3373       1   10593   10594    7335    7322   10668    9883+
+           8536    9882
CQUAD8      3374       1   10594   10595    7348    7335   10669    9884+
+           8561    9883
CQUAD8      3375       1   10595   10596    7361    7348   10670    9885+
+           8586    9884
CQUAD8      3376       1   10596   10597    7374    7361   10671    9886+
+           8611    9885
CQUAD8      3377       1   10597   10598    7387    7374   10672    9887+
+           8636    9886
CQUAD8      3378       1   10598   10599    7400    7387   10673    9888+
+           8661    9887
CQUAD8      3379       1   10599   10600    7413    7400   10674    9889+
+           8686    9888
CQUAD8      3380       1   10600   10601    7426    7413   10675    9890+
+           8711    9889
CQUAD8      3381       1   10601   10602    7439    7426   10676    9891+
+           8736    9890
CQUAD8      3382       1   10602   10603    7452    7439   10677    9892+
+           8761    9891
CQUAD8      3383       1   10603   10604    7465    7452   10678    9893+
+           8786    9892
CQUAD8      3384       1   10604   10605    7478    7465   10679    9894+
+           8811    9893
CQUAD8      3385       1   10605   10606    7491    7478   10680    9895+
+           8836    9894
CQUAD8      3386       1   10606   10607    7504    7491   10681    9896+
+           8861    9895
CQUAD8      3387       1   10607   10608    7517    7504   10682    9897+
+           8886    9896
CQUAD8      3388       1   10608   10609    7530    7517   10683    9898+
+           8911    9897
CQUAD8      3389       1   10609   10610    7543    7530   10684    9899+
+           8936    9898
CQUAD8      3390       1   10610   10611    7556    7543   10685    9900+
+           8961    9899
CQUAD8      3391       1   10611   10612    7569    7556   10686    9901+
+           8986    9900
CQUAD8      3392       1   10612   10613    7582    7569   10687    9902+
+           9011    9901
CQUAD8      3393       1   10613   10614    7595    7582   10688    9903+
+           9036    9902
CQUAD8      3394       1   10614   10615    7608    7595   10689    9904+
+           9061    9903
CQUAD8      3395       1   10615   10616    7621    7608   10690    9905+
+           9086    9904
CQUAD8      3396       1   10616   10617    7634    7621   10691    9906+
+           9111    9905
CQUAD8      3397       1   10617   10618    7647    7634   10692    9907+
+           9136    9906
CQUAD8      3398       1   10618   10619    7660    7647   10693    9908+
+           9161    9907
CQUAD8      3399       1   10619   10620    7673    7660   10694    9909+
+           9186    9908
CQUAD8      3400       1   10620   10621    7686    7673   10695    9910+
+           9211    9909
CQUAD8      3401       1   10621   10622    7699    7686   10696    9911+
+           9236    9910
CQUAD8      3402       1   10622   10623    7712    7699   10697    9912+
+           9261    9911
CQUAD8      3403       1   10623   10624    7725    7712   10698    9913+
+           9286    9912
CQUAD8      3404       1   10624   10625    7738    7725   10699    9914+
+           9311    9913
CQUAD8      3405       1   10625   10626    7751    7738   10700    9915+
+           9336    9914
CQUAD8      3406       1   10626   10627    7764    7751   10701    9916+
+           9361    9915
CQUAD8      3407       1   10627   10628    7777    7764   10702    9917+
+           9386    9916
CQUAD8      3408       1   10628   10629    7790    7777   10703    9918+
+           9411    9917
CQUAD8      3409       1   10629   10630    7803    7790   10704    9919+
+           9436    9918
CQUAD8      3410       1   10630   10631    7816    7803   10705    9920+
+           9461    9919
CQUAD8      3411       1   10631   10632    7829    7816   10706    9921+
+           9486    9920
CQUAD8      3412       1   10632   10633    7842    7829   10707    9922+
+           9511    9921
CQUAD8      3413       1   10633   10634    7855    7842   10708    9923+
+           9536    9922
CQUAD8      3414       1   10634   10635    7868    7855   10709    9924+
+           9561    9923
CQUAD8      3415       1   10635   10636    7881    7868   10710    9925+
+           9586    9924
CQUAD8      3416       1   10636   10637    7894    7881   10711    9926+
+           9611    9925
CQUAD8      3417       1   10637   10638    7907    7894   10712    9927+
+           9636    9926
CQUAD8      3418       1   10638   10639    7920    7907   10713    9928+
+           9661    9927
CQUAD8      3419       1   10639   10640    7933    7920   10714    9929+
+           9686    9928
CQUAD8      3420       1   10640   10641    7946    7933   10715    9930+
+           9711    9929
CQUAD8      3421       1   10641   10642    7959    7946   10716    9931+
+           9736    9930
CQUAD8      3422       1   10642   10643    7972    7959   10717    9932+
+           9761    9931
CQUAD8      3423       1   10643   10644    7985    7972   10718    9933+
+           9786    9932
CQUAD8      3424       1   10644   10645    7998    7985   10719    9934+
+           9811    9933
CQUAD8      3425       1   10645   10646    8011    7998   10720    9935+
+           9836    9934
CQUAD8      3426       1   10646   10816   10099    8011   10721   10112+
+           9936    9935
CQUAD8      3427       1    8011   10099   10100    8012    9936   10113+
+           9937    9837
CQUAD8      3428       1    8012   10100   10101    8013    9937   10114+
+           9938    9839
CQUAD8      3429       1    8013   10101   10102    8014    9938   10115+
+           9939    9841
CQUAD8      3430       1    8014   10102   10103    8015    9939   10116+
+           9940    9843
CQUAD8      3431       1    8015   10103   10104    8016    9940   10117+
+           9941    9845
CQUAD8      3432       1    8016   10104   10105    8017    9941   10118+
+           9942    9847
CQUAD8      3433       1    8017   10105   10106    8018    9942   10119+
+           9943    9849
CQUAD8      3434       1    8018   10106   10107    8019    9943   10120+
+           9944    9851
CQUAD8      3435       1    8019   10107   10108    8020    9944   10121+
+           9945    9853
CQUAD8      3436       1    8020   10108   10109    8021    9945   10122+
+           9946    9855
CQUAD8      3437       1    8021   10109   10110    8022    9946   10123+
+           9947    9857
CQUAD8      3438       1    8022   10110   10111    8023    9947   10124+
+           9948    9859
CQUAD8      3439       1    8023   10111   10813   10275    9948   10125+
+          10423    9949
CQUAD8      3440       1    8010    8023   10275   10276    9860    9949+
+          10422    9950
CQUAD8      3441       1    7997    8010   10276   10277    9835    9950+
+          10421    9951
CQUAD8      3442       1    7984    7997   10277   10278    9810    9951+
+          10420    9952
CQUAD8      3443       1    7971    7984   10278   10279    9785    9952+
+          10419    9953
CQUAD8      3444       1    7958    7971   10279   10280    9760    9953+
+          10418    9954
CQUAD8      3445       1    7945    7958   10280   10281    9735    9954+
+          10417    9955
CQUAD8      3446       1    7932    7945   10281   10282    9710    9955+
+          10416    9956
CQUAD8      3447       1    7919    7932   10282   10283    9685    9956+
+          10415    9957
CQUAD8      3448       1    7906    7919   10283   10284    9660    9957+
+          10414    9958
CQUAD8      3449       1    7893    7906   10284   10285    9635    9958+
+          10413    9959
CQUAD8      3450       1    7880    7893   10285   10286    9610    9959+
+          10412    9960
CQUAD8      3451       1    7867    7880   10286   10287    9585    9960+
+          10411    9961
CQUAD8      3452       1    7854    7867   10287   10288    9560    9961+
+          10410    9962
CQUAD8      3453       1    7841    7854   10288   10289    9535    9962+
+          10409    9963
CQUAD8      3454       1    7828    7841   10289   10290    9510    9963+
+          10408    9964
CQUAD8      3455       1    7815    7828   10290   10291    9485    9964+
+          10407    9965
CQUAD8      3456       1    7802    7815   10291   10292    9460    9965+
+          10406    9966
CQUAD8      3457       1    7789    7802   10292   10293    9435    9966+
+          10405    9967
CQUAD8      3458       1    7776    7789   10293   10294    9410    9967+
+          10404    9968
CQUAD8      3459       1    7763    7776   10294   10295    9385    9968+
+          10403    9969
CQUAD8      3460       1    7750    7763   10295   10296    9360    9969+
+          10402    9970
CQUAD8      3461       1    7737    7750   10296   10297    9335    9970+
+          10401    9971
CQUAD8      3462       1    7724    7737   10297   10298    9310    9971+
+          10400    9972
CQUAD8      3463       1    7711    7724   10298   10299    9285    9972+
+          10399    9973
CQUAD8      3464       1    7698    7711   10299   10300    9260    9973+
+          10398    9974
CQUAD8      3465       1    7685    7698   10300   10301    9235    9974+
+          10397    9975
CQUAD8      3466       1    7672    7685   10301   10302    9210    9975+
+          10396    9976
CQUAD8      3467       1    7659    7672   10302   10303    9185    9976+
+          10395    9977
CQUAD8      3468       1    7646    7659   10303   10304    9160    9977+
+          10394    9978
CQUAD8      3469       1    7633    7646   10304   10305    9135    9978+
+          10393    9979
CQUAD8      3470       1    7620    7633   10305   10306    9110    9979+
+          10392    9980
CQUAD8      3471       1    7607    7620   10306   10307    9085    9980+
+          10391    9981
CQUAD8      3472       1    7594    7607   10307   10308    9060    9981+
+          10390    9982
CQUAD8      3473       1    7581    7594   10308   10309    9035    9982+
+          10389    9983
CQUAD8      3474       1    7568    7581   10309   10310    9010    9983+
+          10388    9984
CQUAD8      3475       1    7555    7568   10310   10311    8985    9984+
+          10387    9985
CQUAD8      3476       1    7542    7555   10311   10312    8960    9985+
+          10386    9986
CQUAD8      3477       1    7529    7542   10312   10313    8935    9986+
+          10385    9987
CQUAD8      3478       1    7516    7529   10313   10314    8910    9987+
+          10384    9988
CQUAD8      3479       1    7503    7516   10314   10315    8885    9988+
+          10383    9989
CQUAD8      3480       1    7490    7503   10315   10316    8860    9989+
+          10382    9990
CQUAD8      3481       1    7477    7490   10316   10317    8835    9990+
+          10381    9991
CQUAD8      3482       1    7464    7477   10317   10318    8810    9991+
+          10380    9992
CQUAD8      3483       1    7451    7464   10318   10319    8785    9992+
+          10379    9993
CQUAD8      3484       1    7438    7451   10319   10320    8760    9993+
+          10378    9994
CQUAD8      3485       1    7425    7438   10320   10321    8735    9994+
+          10377    9995
CQUAD8      3486       1    7412    7425   10321   10322    8710    9995+
+          10376    9996
CQUAD8      3487       1    7399    7412   10322   10323    8685    9996+
+          10375    9997
CQUAD8      3488       1    7386    7399   10323   10324    8660    9997+
+          10374    9998
CQUAD8      3489       1    7373    7386   10324   10325    8635    9998+
+          10373    9999
CQUAD8      3490       1    7360    7373   10325   10326    8610    9999+
+          10372   10000
CQUAD8      3491       1    7347    7360   10326   10327    8585   10000+
+          10371   10001
CQUAD8      3492       1    7334    7347   10327   10328    8560   10001+
+          10370   10002
CQUAD8      3493       1    7321    7334   10328   10329    8535   10002+
+          10369   10003
CQUAD8      3494       1    7308    7321   10329   10330    8510   10003+
+          10368   10004
CQUAD8      3495       1    7295    7308   10330   10331    8485   10004+
+          10367   10005
CQUAD8      3496       1    7282    7295   10331   10332    8460   10005+
+          10366   10006
CQUAD8      3497       1    7269    7282   10332   10333    8435   10006+
+          10365   10007
CQUAD8      3498       1    7256    7269   10333   10334    8410   10007+
+          10364   10008
CQUAD8      3499       1    7243    7256   10334   10335    8385   10008+
+          10363   10009
CQUAD8      3500       1    7230    7243   10335   10336    8360   10009+
+          10362   10010
CQUAD8      3501       1    7217    7230   10336   10337    8335   10010+
+          10361   10011
CQUAD8      3502       1    7204    7217   10337   10338    8310   10011+
+          10360   10012
CQUAD8      3503       1    7191    7204   10338   10339    8285   10012+
+          10359   10013
CQUAD8      3504       1    7178    7191   10339   10340    8260   10013+
+          10358   10014
CQUAD8      3505       1    7165    7178   10340   10341    8235   10014+
+          10357   10015
CQUAD8      3506       1    7152    7165   10341   10342    8210   10015+
+          10356   10016
CQUAD8      3507       1    7139    7152   10342   10343    8185   10016+
+          10355   10017
CQUAD8      3508       1    7126    7139   10343   10344    8160   10017+
+          10354   10018
CQUAD8      3509       1    7113    7126   10344   10345    8135   10018+
+          10353   10019
CQUAD8      3510       1    7100    7113   10345   10346    8110   10019+
+          10352   10020
CQUAD8      3511       1    7087    7100   10346   10347    8085   10020+
+          10351   10021
CQUAD8      3512       1    7074    7087   10347   10348    8059   10021+
+          10350   10022
CQUAD8      3513       1   10786    7074   10348   10818   10023   10022+
+          10349   10800
CQUAD8      3514       1   10787    7073    7074   10786   10024    8060+
+          10023   10801
CQUAD8      3515       1   10788    7072    7073   10787   10025    8057+
+          10024   10802
CQUAD8      3516       1   10789    7071    7072   10788   10026    8054+
+          10025   10803
CQUAD8      3517       1   10790    7070    7071   10789   10027    8051+
+          10026   10804
CQUAD8      3518       1   10791    7069    7070   10790   10028    8048+
+          10027   10805
CQUAD8      3519       1   10792    7068    7069   10791   10029    8045+
+          10028   10806
CQUAD8      3520       1   10793    7067    7068   10792   10030    8042+
+          10029   10807
CQUAD8      3521       1   10794    7066    7067   10793   10031    8039+
+          10030   10808
CQUAD8      3522       1   10795    7065    7066   10794   10032    8036+
+          10031   10809
CQUAD8      3523       1   10796    7064    7065   10795   10033    8033+
+          10032   10810
CQUAD8      3524       1   10797    7063    7064   10796   10034    8030+
+          10033   10811
CQUAD8      3525       1   10798    7062    7063   10797    9862    8027+
+          10034   10812
$*
$* PROPERTY CARDS
$*
$*  Property: PSHELL1
PSHELL         1       13.000000       11.000000       10.833333  0.0000
$*
$* MATERIAL CARDS
$*
$*  Material: Aluminum_6061::model1_fem1::[1]
MAT1           16.8980+7        0.3300002.7110-62.2380-5
MATT1          1       1               2               3
TABLEM1        1                       1                                +
+        20.00006.8980+7 21.11006.8980+7 23.89006.8980+7 37.78006.8290+7+
+        51.67006.8290+7 65.56006.7600+7 79.44006.6910+7 93.33006.6221+7+
+       107.22006.5531+7121.11006.4841+7135.00006.4151+7148.89006.3461+7+
+       162.78006.2772+7176.67006.1392+7190.56006.0702+7204.44005.9323+7+
+       218.33005.8633+7232.22005.7253+7246.11005.5874+7260.00005.4494+7+
+       273.89005.3114+7287.78005.1735+7301.67005.0355+7315.56004.8976+7+
+       329.44004.7596+7343.33004.6216+7357.22004.4147+7371.11004.2767+7+
+       385.00004.1388+7398.89003.9318+7412.78003.7939+7426.67003.5869+7+
+           ENDT
TABLEM1        2                       1                                +
+        20.00000.330000 21.11000.330000    ENDT
TABLEM1        3                       1                                +
+        20.00002.2380-5 93.33002.3184-5107.22002.3346-5121.11002.3508-5+
+       135.00002.3670-5148.89002.3832-5162.78002.3994-5176.67002.4138-5+
+       190.56002.4300-5204.44002.4444-5218.33002.4588-5232.22002.4732-5+
+       246.11002.4876-5260.00002.5002-5273.89002.5146-5287.78002.5272-5+
+       301.67002.5398-5315.56002.5524-5    ENDT
$*
$* LOAD AND CONSTRAINT CARDS
$*
$*  Load: Force(1)
FORCE          1    4549       020689.66  0.0000  0.0000-1.00000
FORCE          1    4550       020689.66  0.0000  0.0000-1.00000
FORCE          1    4551       020689.66  0.0000  0.0000-1.00000
FORCE          1    4562       020689.66  0.0000  0.0000-1.00000
FORCE          1    4563       020689.66  0.0000  0.0000-1.00000
FORCE          1    4564       020689.66  0.0000  0.0000-1.00000
FORCE          1    4575       020689.66  0.0000  0.0000-1.00000
FORCE          1    4576       020689.66  0.0000  0.0000-1.00000
FORCE          1    4577       020689.66  0.0000  0.0000-1.00000
FORCE          1    4588       020689.66  0.0000  0.0000-1.00000
FORCE          1    4589       020689.66  0.0000  0.0000-1.00000
FORCE          1    4590       020689.66  0.0000  0.0000-1.00000
FORCE          1    5924       020689.66  0.0000  0.0000-1.00000
FORCE          1    5926       020689.66  0.0000  0.0000-1.00000
FORCE          1    5948       020689.66  0.0000  0.0000-1.00000
FORCE          1    5949       020689.66  0.0000  0.0000-1.00000
FORCE          1    5950       020689.66  0.0000  0.0000-1.00000
FORCE          1    5951       020689.66  0.0000  0.0000-1.00000
FORCE          1    5952       020689.66  0.0000  0.0000-1.00000
FORCE          1    5973       020689.66  0.0000  0.0000-1.00000
FORCE          1    5974       020689.66  0.0000  0.0000-1.00000
FORCE          1    5975       020689.66  0.0000  0.0000-1.00000
FORCE          1    5976       020689.66  0.0000  0.0000-1.00000
FORCE          1    5977       020689.66  0.0000  0.0000-1.00000
FORCE          1    5998       020689.66  0.0000  0.0000-1.00000
FORCE          1    5999       020689.66  0.0000  0.0000-1.00000
FORCE          1    6000       020689.66  0.0000  0.0000-1.00000
FORCE          1    6001       020689.66  0.0000  0.0000-1.00000
FORCE          1    6002       020689.66  0.0000  0.0000-1.00000
$*  Constraint: Fixed(1)
SPC            2    7062  123456  0.0000
SPC            2    7063  123456  0.0000
SPC            2    7064  123456  0.0000
SPC            2    7065  123456  0.0000
SPC            2    7066  123456  0.0000
SPC            2    7067  123456  0.0000
SPC            2    7068  123456  0.0000
SPC            2    7069  123456  0.0000
SPC            2    7070  123456  0.0000
SPC            2    7071  123456  0.0000
SPC            2    7072  123456  0.0000
SPC            2    7073  123456  0.0000
SPC            2    7074  123456  0.0000
SPC            2    7075  123456  0.0000
SPC            2    7076  123456  0.0000
SPC            2    7077  123456  0.0000
SPC            2    7078  123456  0.0000
SPC            2    7079  123456  0.0000
SPC            2    7080  123456  0.0000
SPC            2    7081  123456  0.0000
SPC            2    7082  123456  0.0000
SPC            2    7083  123456  0.0000
SPC            2    7084  123456  0.0000
SPC            2    7085  123456  0.0000
SPC            2    7086  123456  0.0000
SPC            2    7087  123456  0.0000
SPC            2    7088  123456  0.0000
SPC            2    7089  123456  0.0000
SPC            2    7090  123456  0.0000
SPC            2    7091  123456  0.0000
SPC            2    7092  123456  0.0000
SPC            2    7093  123456  0.0000
SPC            2    7094  123456  0.0000
SPC            2    7095  123456  0.0000
SPC            2    7096  123456  0.0000
SPC            2    7097  123456  0.0000
SPC            2    7098  123456  0.0000
SPC            2    7099  123456  0.0000
SPC            2    7100  123456  0.0000
SPC            2    7101  123456  0.0000
SPC            2    7102  123456  0.0000
SPC            2    7103  123456  0.0000
SPC            2    7104  123456  0.0000
SPC            2    7105  123456  0.0000
SPC            2    7106  123456  0.0000
SPC            2    7107  123456  0.0000
SPC            2    7108  123456  0.0000
SPC            2    7109  123456  0.0000
SPC            2    7110  123456  0.0000
SPC            2    7111  123456  0.0000
SPC            2    7112  123456  0.0000
SPC            2    7113  123456  0.0000
SPC            2    7114  123456  0.0000
SPC            2    7115  123456  0.0000
SPC            2    7116  123456  0.0000
SPC            2    7117  123456  0.0000
SPC            2    7118  123456  0.0000
SPC            2    7119  123456  0.0000
SPC            2    7120  123456  0.0000
SPC            2    7121  123456  0.0000
SPC            2    7122  123456  0.0000
SPC            2    7123  123456  0.0000
SPC            2    7124  123456  0.0000
SPC            2    7125  123456  0.0000
SPC            2    7126  123456  0.0000
SPC            2    7127  123456  0.0000
SPC            2    7128  123456  0.0000
SPC            2    7129  123456  0.0000
SPC            2    7130  123456  0.0000
SPC            2    7131  123456  0.0000
SPC            2    7132  123456  0.0000
SPC            2    7133  123456  0.0000
SPC            2    7134  123456  0.0000
SPC            2    7135  123456  0.0000
SPC            2    7136  123456  0.0000
SPC            2    7137  123456  0.0000
SPC            2    7138  123456  0.0000
SPC            2    7139  123456  0.0000
SPC            2    7140  123456  0.0000
SPC            2    7141  123456  0.0000
SPC            2    7142  123456  0.0000
SPC            2    7143  123456  0.0000
SPC            2    7144  123456  0.0000
SPC            2    7145  123456  0.0000
SPC            2    7146  123456  0.0000
SPC            2    7147  123456  0.0000
SPC            2    7148  123456  0.0000
SPC            2    7149  123456  0.0000
SPC            2    7150  123456  0.0000
SPC            2    7151  123456  0.0000
SPC            2    7152  123456  0.0000
SPC            2    7153  123456  0.0000
SPC            2    7154  123456  0.0000
SPC            2    7155  123456  0.0000
SPC            2    7156  123456  0.0000
SPC            2    7157  123456  0.0000
SPC            2    7158  123456  0.0000
SPC            2    7159  123456  0.0000
SPC            2    7160  123456  0.0000
SPC            2    7161  123456  0.0000
SPC            2    7162  123456  0.0000
SPC            2    7163  123456  0.0000
SPC            2    7164  123456  0.0000
SPC            2    7165  123456  0.0000
SPC            2    7166  123456  0.0000
SPC            2    7167  123456  0.0000
SPC            2    7168  123456  0.0000
SPC            2    7169  123456  0.0000
SPC            2    7170  123456  0.0000
SPC            2    7171  123456  0.0000
SPC            2    7172  123456  0.0000
SPC            2    7173  123456  0.0000
SPC            2    7174  123456  0.0000
SPC            2    7175  123456  0.0000
SPC            2    7176  123456  0.0000
SPC            2    7177  123456  0.0000
SPC            2    7178  123456  0.0000
SPC            2    7179  123456  0.0000
SPC            2    7180  123456  0.0000
SPC            2    7181  123456  0.0000
SPC            2    7182  123456  0.0000
SPC            2    7183  123456  0.0000
SPC            2    7184  123456  0.0000
SPC            2    7185  123456  0.0000
SPC            2    7186  123456  0.0000
SPC            2    7187  123456  0.0000
SPC            2    7188  123456  0.0000
SPC            2    7189  123456  0.0000
SPC            2    7190  123456  0.0000
SPC            2    7191  123456  0.0000
SPC            2    7192  123456  0.0000
SPC            2    7193  123456  0.0000
SPC            2    7194  123456  0.0000
SPC            2    7195  123456  0.0000
SPC            2    7196  123456  0.0000
SPC            2    7197  123456  0.0000
SPC            2    7198  123456  0.0000
SPC            2    7199  123456  0.0000
SPC            2    7200  123456  0.0000
SPC            2    7201  123456  0.0000
SPC            2    7202  123456  0.0000
SPC            2    7203  123456  0.0000
SPC            2    7204  123456  0.0000
SPC            2    7205  123456  0.0000
SPC            2    7206  123456  0.0000
SPC            2    7207  123456  0.0000
SPC            2    7208  123456  0.0000
SPC            2    7209  123456  0.0000
SPC            2    7210  123456  0.0000
SPC            2    7211  123456  0.0000
SPC            2    7212  123456  0.0000
SPC            2    7213  123456  0.0000
SPC            2    7214  123456  0.0000
SPC            2    7215  123456  0.0000
SPC            2    7216  123456  0.0000
SPC            2    7217  123456  0.0000
SPC            2    7218  123456  0.0000
SPC            2    7219  123456  0.0000
SPC            2    7220  123456  0.0000
SPC            2    7221  123456  0.0000
SPC            2    7222  123456  0.0000
SPC            2    7223  123456  0.0000
SPC            2    7224  123456  0.0000
SPC            2    7225  123456  0.0000
SPC            2    7226  123456  0.0000
SPC            2    7227  123456  0.0000
SPC            2    7228  123456  0.0000
SPC            2    7229  123456  0.0000
SPC            2    7230  123456  0.0000
SPC            2    7231  123456  0.0000
SPC            2    7232  123456  0.0000
SPC            2    7233  123456  0.0000
SPC            2    7234  123456  0.0000
SPC            2    7235  123456  0.0000
SPC            2    7236  123456  0.0000
SPC            2    7237  123456  0.0000
SPC            2    7238  123456  0.0000
SPC            2    7239  123456  0.0000
SPC            2    7240  123456  0.0000
SPC            2    7241  123456  0.0000
SPC            2    7242  123456  0.0000
SPC            2    7243  123456  0.0000
SPC            2    7244  123456  0.0000
SPC            2    7245  123456  0.0000
SPC            2    7246  123456  0.0000
SPC            2    7247  123456  0.0000
SPC            2    7248  123456  0.0000
SPC            2    7249  123456  0.0000
SPC            2    7250  123456  0.0000
SPC            2    7251  123456  0.0000
SPC            2    7252  123456  0.0000
SPC            2    7253  123456  0.0000
SPC            2    7254  123456  0.0000
SPC            2    7255  123456  0.0000
SPC            2    7256  123456  0.0000
SPC            2    7257  123456  0.0000
SPC            2    7258  123456  0.0000
SPC            2    7259  123456  0.0000
SPC            2    7260  123456  0.0000
SPC            2    7261  123456  0.0000
SPC            2    7262  123456  0.0000
SPC            2    7263  123456  0.0000
SPC            2    7264  123456  0.0000
SPC            2    7265  123456  0.0000
SPC            2    7266  123456  0.0000
SPC            2    7267  123456  0.0000
SPC            2    7268  123456  0.0000
SPC            2    7269  123456  0.0000
SPC            2    7270  123456  0.0000
SPC            2    7271  123456  0.0000
SPC            2    7272  123456  0.0000
SPC            2    7273  123456  0.0000
SPC            2    7274  123456  0.0000
SPC            2    7275  123456  0.0000
SPC            2    7276  123456  0.0000
SPC            2    7277  123456  0.0000
SPC            2    7278  123456  0.0000
SPC            2    7279  123456  0.0000
SPC            2    7280  123456  0.0000
SPC            2    7281  123456  0.0000
SPC            2    7282  123456  0.0000
SPC            2    7283  123456  0.0000
SPC            2    7284  123456  0.0000
SPC            2    7285  123456  0.0000
SPC            2    7286  123456  0.0000
SPC            2    7287  123456  0.0000
SPC            2    7288  123456  0.0000
SPC            2    7289  123456  0.0000
SPC            2    7290  123456  0.0000
SPC            2    7291  123456  0.0000
SPC            2    7292  123456  0.0000
SPC            2    7293  123456  0.0000
SPC            2    7294  123456  0.0000
SPC            2    7295  123456  0.0000
SPC            2    7296  123456  0.0000
SPC            2    7297  123456  0.0000
SPC            2    7298  123456  0.0000
SPC            2    7299  123456  0.0000
SPC            2    7300  123456  0.0000
SPC            2    7301  123456  0.0000
SPC            2    7302  123456  0.0000
SPC            2    7303  123456  0.0000
SPC            2    7304  123456  0.0000
SPC            2    7305  123456  0.0000
SPC            2    7306  123456  0.0000
SPC            2    7307  123456  0.0000
SPC            2    7308  123456  0.0000
SPC            2    7309  123456  0.0000
SPC            2    7310  123456  0.0000
SPC            2    7311  123456  0.0000
SPC            2    7312  123456  0.0000
SPC            2    7313  123456  0.0000
SPC            2    7314  123456  0.0000
SPC            2    7315  123456  0.0000
SPC            2    7316  123456  0.0000
SPC            2    7317  123456  0.0000
SPC            2    7318  123456  0.0000
SPC            2    7319  123456  0.0000
SPC            2    7320  123456  0.0000
SPC            2    7321  123456  0.0000
SPC            2    7322  123456  0.0000
SPC            2    7323  123456  0.0000
SPC            2    7324  123456  0.0000
SPC            2    7325  123456  0.0000
SPC            2    7326  123456  0.0000
SPC            2    7327  123456  0.0000
SPC            2    7328  123456  0.0000
SPC            2    7329  123456  0.0000
SPC            2    7330  123456  0.0000
SPC            2    7331  123456  0.0000
SPC            2    7332  123456  0.0000
SPC            2    7333  123456  0.0000
SPC            2    7334  123456  0.0000
SPC            2    7335  123456  0.0000
SPC            2    7336  123456  0.0000
SPC            2    7337  123456  0.0000
SPC            2    7338  123456  0.0000
SPC            2    7339  123456  0.0000
SPC            2    7340  123456  0.0000
SPC            2    7341  123456  0.0000
SPC            2    7342  123456  0.0000
SPC            2    7343  123456  0.0000
SPC            2    7344  123456  0.0000
SPC            2    7345  123456  0.0000
SPC            2    7346  123456  0.0000
SPC            2    7347  123456  0.0000
SPC            2    7348  123456  0.0000
SPC            2    7349  123456  0.0000
SPC            2    7350  123456  0.0000
SPC            2    7351  123456  0.0000
SPC            2    7352  123456  0.0000
SPC            2    7353  123456  0.0000
SPC            2    7354  123456  0.0000
SPC            2    7355  123456  0.0000
SPC            2    7356  123456  0.0000
SPC            2    7357  123456  0.0000
SPC            2    7358  123456  0.0000
SPC            2    7359  123456  0.0000
SPC            2    7360  123456  0.0000
SPC            2    7361  123456  0.0000
SPC            2    7362  123456  0.0000
SPC            2    7363  123456  0.0000
SPC            2    7364  123456  0.0000
SPC            2    7365  123456  0.0000
SPC            2    7366  123456  0.0000
SPC            2    7367  123456  0.0000
SPC            2    7368  123456  0.0000
SPC            2    7369  123456  0.0000
SPC            2    7370  123456  0.0000
SPC            2    7371  123456  0.0000
SPC            2    7372  123456  0.0000
SPC            2    7373  123456  0.0000
SPC            2    7374  123456  0.0000
SPC            2    7375  123456  0.0000
SPC            2    7376  123456  0.0000
SPC            2    7377  123456  0.0000
SPC            2    7378  123456  0.0000
SPC            2    7379  123456  0.0000
SPC            2    7380  123456  0.0000
SPC            2    7381  123456  0.0000
SPC            2    7382  123456  0.0000
SPC            2    7383  123456  0.0000
SPC            2    7384  123456  0.0000
SPC            2    7385  123456  0.0000
SPC            2    7386  123456  0.0000
SPC            2    7387  123456  0.0000
SPC            2    7388  123456  0.0000
SPC            2    7389  123456  0.0000
SPC            2    7390  123456  0.0000
SPC            2    7391  123456  0.0000
SPC            2    7392  123456  0.0000
SPC            2    7393  123456  0.0000
SPC            2    7394  123456  0.0000
SPC            2    7395  123456  0.0000
SPC            2    7396  123456  0.0000
SPC            2    7397  123456  0.0000
SPC            2    7398  123456  0.0000
SPC            2    7399  123456  0.0000
SPC            2    7400  123456  0.0000
SPC            2    7401  123456  0.0000
SPC            2    7402  123456  0.0000
SPC            2    7403  123456  0.0000
SPC            2    7404  123456  0.0000
SPC            2    7405  123456  0.0000
SPC            2    7406  123456  0.0000
SPC            2    7407  123456  0.0000
SPC            2    7408  123456  0.0000
SPC            2    7409  123456  0.0000
SPC            2    7410  123456  0.0000
SPC            2    7411  123456  0.0000
SPC            2    7412  123456  0.0000
SPC            2    7413  123456  0.0000
SPC            2    7414  123456  0.0000
SPC            2    7415  123456  0.0000
SPC            2    7416  123456  0.0000
SPC            2    7417  123456  0.0000
SPC            2    7418  123456  0.0000
SPC            2    7419  123456  0.0000
SPC            2    7420  123456  0.0000
SPC            2    7421  123456  0.0000
SPC            2    7422  123456  0.0000
SPC            2    7423  123456  0.0000
SPC            2    7424  123456  0.0000
SPC            2    7425  123456  0.0000
SPC            2    7426  123456  0.0000
SPC            2    7427  123456  0.0000
SPC            2    7428  123456  0.0000
SPC            2    7429  123456  0.0000
SPC            2    7430  123456  0.0000
SPC            2    7431  123456  0.0000
SPC            2    7432  123456  0.0000
SPC            2    7433  123456  0.0000
SPC            2    7434  123456  0.0000
SPC            2    7435  123456  0.0000
SPC            2    7436  123456  0.0000
SPC            2    7437  123456  0.0000
SPC            2    7438  123456  0.0000
SPC            2    7439  123456  0.0000
SPC            2    7440  123456  0.0000
SPC            2    7441  123456  0.0000
SPC            2    7442  123456  0.0000
SPC            2    7443  123456  0.0000
SPC            2    7444  123456  0.0000
SPC            2    7445  123456  0.0000
SPC            2    7446  123456  0.0000
SPC            2    7447  123456  0.0000
SPC            2    7448  123456  0.0000
SPC            2    7449  123456  0.0000
SPC            2    7450  123456  0.0000
SPC            2    7451  123456  0.0000
SPC            2    7452  123456  0.0000
SPC            2    7453  123456  0.0000
SPC            2    7454  123456  0.0000
SPC            2    7455  123456  0.0000
SPC            2    7456  123456  0.0000
SPC            2    7457  123456  0.0000
SPC            2    7458  123456  0.0000
SPC            2    7459  123456  0.0000
SPC            2    7460  123456  0.0000
SPC            2    7461  123456  0.0000
SPC            2    7462  123456  0.0000
SPC            2    7463  123456  0.0000
SPC            2    7464  123456  0.0000
SPC            2    7465  123456  0.0000
SPC            2    7466  123456  0.0000
SPC            2    7467  123456  0.0000
SPC            2    7468  123456  0.0000
SPC            2    7469  123456  0.0000
SPC            2    7470  123456  0.0000
SPC            2    7471  123456  0.0000
SPC            2    7472  123456  0.0000
SPC            2    7473  123456  0.0000
SPC            2    7474  123456  0.0000
SPC            2    7475  123456  0.0000
SPC            2    7476  123456  0.0000
SPC            2    7477  123456  0.0000
SPC            2    7478  123456  0.0000
SPC            2    7479  123456  0.0000
SPC            2    7480  123456  0.0000
SPC            2    7481  123456  0.0000
SPC            2    7482  123456  0.0000
SPC            2    7483  123456  0.0000
SPC            2    7484  123456  0.0000
SPC            2    7485  123456  0.0000
SPC            2    7486  123456  0.0000
SPC            2    7487  123456  0.0000
SPC            2    7488  123456  0.0000
SPC            2    7489  123456  0.0000
SPC            2    7490  123456  0.0000
SPC            2    7491  123456  0.0000
SPC            2    7492  123456  0.0000
SPC            2    7493  123456  0.0000
SPC            2    7494  123456  0.0000
SPC            2    7495  123456  0.0000
SPC            2    7496  123456  0.0000
SPC            2    7497  123456  0.0000
SPC            2    7498  123456  0.0000
SPC            2    7499  123456  0.0000
SPC            2    7500  123456  0.0000
SPC            2    7501  123456  0.0000
SPC            2    7502  123456  0.0000
SPC            2    7503  123456  0.0000
SPC            2    7504  123456  0.0000
SPC            2    7505  123456  0.0000
SPC            2    7506  123456  0.0000
SPC            2    7507  123456  0.0000
SPC            2    7508  123456  0.0000
SPC            2    7509  123456  0.0000
SPC            2    7510  123456  0.0000
SPC            2    7511  123456  0.0000
SPC            2    7512  123456  0.0000
SPC            2    7513  123456  0.0000
SPC            2    7514  123456  0.0000
SPC            2    7515  123456  0.0000
SPC            2    7516  123456  0.0000
SPC            2    7517  123456  0.0000
SPC            2    7518  123456  0.0000
SPC            2    7519  123456  0.0000
SPC            2    7520  123456  0.0000
SPC            2    7521  123456  0.0000
SPC            2    7522  123456  0.0000
SPC            2    7523  123456  0.0000
SPC            2    7524  123456  0.0000
SPC            2    7525  123456  0.0000
SPC            2    7526  123456  0.0000
SPC            2    7527  123456  0.0000
SPC            2    7528  123456  0.0000
SPC            2    7529  123456  0.0000
SPC            2    7530  123456  0.0000
SPC            2    7531  123456  0.0000
SPC            2    7532  123456  0.0000
SPC            2    7533  123456  0.0000
SPC            2    7534  123456  0.0000
SPC            2    7535  123456  0.0000
SPC            2    7536  123456  0.0000
SPC            2    7537  123456  0.0000
SPC            2    7538  123456  0.0000
SPC            2    7539  123456  0.0000
SPC            2    7540  123456  0.0000
SPC            2    7541  123456  0.0000
SPC            2    7542  123456  0.0000
SPC            2    7543  123456  0.0000
SPC            2    7544  123456  0.0000
SPC            2    7545  123456  0.0000
SPC            2    7546  123456  0.0000
SPC            2    7547  123456  0.0000
SPC            2    7548  123456  0.0000
SPC            2    7549  123456  0.0000
SPC            2    7550  123456  0.0000
SPC            2    7551  123456  0.0000
SPC            2    7552  123456  0.0000
SPC            2    7553  123456  0.0000
SPC            2    7554  123456  0.0000
SPC            2    7555  123456  0.0000
SPC            2    7556  123456  0.0000
SPC            2    7557  123456  0.0000
SPC            2    7558  123456  0.0000
SPC            2    7559  123456  0.0000
SPC            2    7560  123456  0.0000
SPC            2    7561  123456  0.0000
SPC            2    7562  123456  0.0000
SPC            2    7563  123456  0.0000
SPC            2    7564  123456  0.0000
SPC            2    7565  123456  0.0000
SPC            2    7566  123456  0.0000
SPC            2    7567  123456  0.0000
SPC            2    7568  123456  0.0000
SPC            2    7569  123456  0.0000
SPC            2    7570  123456  0.0000
SPC            2    7571  123456  0.0000
SPC            2    7572  123456  0.0000
SPC            2    7573  123456  0.0000
SPC            2    7574  123456  0.0000
SPC            2    7575  123456  0.0000
SPC            2    7576  123456  0.0000
SPC            2    7577  123456  0.0000
SPC            2    7578  123456  0.0000
SPC            2    7579  123456  0.0000
SPC            2    7580  123456  0.0000
SPC            2    7581  123456  0.0000
SPC            2    7582  123456  0.0000
SPC            2    7583  123456  0.0000
SPC            2    7584  123456  0.0000
SPC            2    7585  123456  0.0000
SPC            2    7586  123456  0.0000
SPC            2    7587  123456  0.0000
SPC            2    7588  123456  0.0000
SPC            2    7589  123456  0.0000
SPC            2    7590  123456  0.0000
SPC            2    7591  123456  0.0000
SPC            2    7592  123456  0.0000
SPC            2    7593  123456  0.0000
SPC            2    7594  123456  0.0000
SPC            2    7595  123456  0.0000
SPC            2    7596  123456  0.0000
SPC            2    7597  123456  0.0000
SPC            2    7598  123456  0.0000
SPC            2    7599  123456  0.0000
SPC            2    7600  123456  0.0000
SPC            2    7601  123456  0.0000
SPC            2    7602  123456  0.0000
SPC            2    7603  123456  0.0000
SPC            2    7604  123456  0.0000
SPC            2    7605  123456  0.0000
SPC            2    7606  123456  0.0000
SPC            2    7607  123456  0.0000
SPC            2    7608  123456  0.0000
SPC            2    7609  123456  0.0000
SPC            2    7610  123456  0.0000
SPC            2    7611  123456  0.0000
SPC            2    7612  123456  0.0000
SPC            2    7613  123456  0.0000
SPC            2    7614  123456  0.0000
SPC            2    7615  123456  0.0000
SPC            2    7616  123456  0.0000
SPC            2    7617  123456  0.0000
SPC            2    7618  123456  0.0000
SPC            2    7619  123456  0.0000
SPC            2    7620  123456  0.0000
SPC            2    7621  123456  0.0000
SPC            2    7622  123456  0.0000
SPC            2    7623  123456  0.0000
SPC            2    7624  123456  0.0000
SPC            2    7625  123456  0.0000
SPC            2    7626  123456  0.0000
SPC            2    7627  123456  0.0000
SPC            2    7628  123456  0.0000
SPC            2    7629  123456  0.0000
SPC            2    7630  123456  0.0000
SPC            2    7631  123456  0.0000
SPC            2    7632  123456  0.0000
SPC            2    7633  123456  0.0000
SPC            2    7634  123456  0.0000
SPC            2    7635  123456  0.0000
SPC            2    7636  123456  0.0000
SPC            2    7637  123456  0.0000
SPC            2    7638  123456  0.0000
SPC            2    7639  123456  0.0000
SPC            2    7640  123456  0.0000
SPC            2    7641  123456  0.0000
SPC            2    7642  123456  0.0000
SPC            2    7643  123456  0.0000
SPC            2    7644  123456  0.0000
SPC            2    7645  123456  0.0000
SPC            2    7646  123456  0.0000
SPC            2    7647  123456  0.0000
SPC            2    7648  123456  0.0000
SPC            2    7649  123456  0.0000
SPC            2    7650  123456  0.0000
SPC            2    7651  123456  0.0000
SPC            2    7652  123456  0.0000
SPC            2    7653  123456  0.0000
SPC            2    7654  123456  0.0000
SPC            2    7655  123456  0.0000
SPC            2    7656  123456  0.0000
SPC            2    7657  123456  0.0000
SPC            2    7658  123456  0.0000
SPC            2    7659  123456  0.0000
SPC            2    7660  123456  0.0000
SPC            2    7661  123456  0.0000
SPC            2    7662  123456  0.0000
SPC            2    7663  123456  0.0000
SPC            2    7664  123456  0.0000
SPC            2    7665  123456  0.0000
SPC            2    7666  123456  0.0000
SPC            2    7667  123456  0.0000
SPC            2    7668  123456  0.0000
SPC            2    7669  123456  0.0000
SPC            2    7670  123456  0.0000
SPC            2    7671  123456  0.0000
SPC            2    7672  123456  0.0000
SPC            2    7673  123456  0.0000
SPC            2    7674  123456  0.0000
SPC            2    7675  123456  0.0000
SPC            2    7676  123456  0.0000
SPC            2    7677  123456  0.0000
SPC            2    7678  123456  0.0000
SPC            2    7679  123456  0.0000
SPC            2    7680  123456  0.0000
SPC            2    7681  123456  0.0000
SPC            2    7682  123456  0.0000
SPC            2    7683  123456  0.0000
SPC            2    7684  123456  0.0000
SPC            2    7685  123456  0.0000
SPC            2    7686  123456  0.0000
SPC            2    7687  123456  0.0000
SPC            2    7688  123456  0.0000
SPC            2    7689  123456  0.0000
SPC            2    7690  123456  0.0000
SPC            2    7691  123456  0.0000
SPC            2    7692  123456  0.0000
SPC            2    7693  123456  0.0000
SPC            2    7694  123456  0.0000
SPC            2    7695  123456  0.0000
SPC            2    7696  123456  0.0000
SPC            2    7697  123456  0.0000
SPC            2    7698  123456  0.0000
SPC            2    7699  123456  0.0000
SPC            2    7700  123456  0.0000
SPC            2    7701  123456  0.0000
SPC            2    7702  123456  0.0000
SPC            2    7703  123456  0.0000
SPC            2    7704  123456  0.0000
SPC            2    7705  123456  0.0000
SPC            2    7706  123456  0.0000
SPC            2    7707  123456  0.0000
SPC            2    7708  123456  0.0000
SPC            2    7709  123456  0.0000
SPC            2    7710  123456  0.0000
SPC            2    7711  123456  0.0000
SPC            2    7712  123456  0.0000
SPC            2    7713  123456  0.0000
SPC            2    7714  123456  0.0000
SPC            2    7715  123456  0.0000
SPC            2    7716  123456  0.0000
SPC            2    7717  123456  0.0000
SPC            2    7718  123456  0.0000
SPC            2    7719  123456  0.0000
SPC            2    7720  123456  0.0000
SPC            2    7721  123456  0.0000
SPC            2    7722  123456  0.0000
SPC            2    7723  123456  0.0000
SPC            2    7724  123456  0.0000
SPC            2    7725  123456  0.0000
SPC            2    7726  123456  0.0000
SPC            2    7727  123456  0.0000
SPC            2    7728  123456  0.0000
SPC            2    7729  123456  0.0000
SPC            2    7730  123456  0.0000
SPC            2    7731  123456  0.0000
SPC            2    7732  123456  0.0000
SPC            2    7733  123456  0.0000
SPC            2    7734  123456  0.0000
SPC            2    7735  123456  0.0000
SPC            2    7736  123456  0.0000
SPC            2    7737  123456  0.0000
SPC            2    7738  123456  0.0000
SPC            2    7739  123456  0.0000
SPC            2    7740  123456  0.0000
SPC            2    7741  123456  0.0000
SPC            2    7742  123456  0.0000
SPC            2    7743  123456  0.0000
SPC            2    7744  123456  0.0000
SPC            2    7745  123456  0.0000
SPC            2    7746  123456  0.0000
SPC            2    7747  123456  0.0000
SPC            2    7748  123456  0.0000
SPC            2    7749  123456  0.0000
SPC            2    7750  123456  0.0000
SPC            2    7751  123456  0.0000
SPC            2    7752  123456  0.0000
SPC            2    7753  123456  0.0000
SPC            2    7754  123456  0.0000
SPC            2    7755  123456  0.0000
SPC            2    7756  123456  0.0000
SPC            2    7757  123456  0.0000
SPC            2    7758  123456  0.0000
SPC            2    7759  123456  0.0000
SPC            2    7760  123456  0.0000
SPC            2    7761  123456  0.0000
SPC            2    7762  123456  0.0000
SPC            2    7763  123456  0.0000
SPC            2    7764  123456  0.0000
SPC            2    7765  123456  0.0000
SPC            2    7766  123456  0.0000
SPC            2    7767  123456  0.0000
SPC            2    7768  123456  0.0000
SPC            2    7769  123456  0.0000
SPC            2    7770  123456  0.0000
SPC            2    7771  123456  0.0000
SPC            2    7772  123456  0.0000
SPC            2    7773  123456  0.0000
SPC            2    7774  123456  0.0000
SPC            2    7775  123456  0.0000
SPC            2    7776  123456  0.0000
SPC            2    7777  123456  0.0000
SPC            2    7778  123456  0.0000
SPC            2    7779  123456  0.0000
SPC            2    7780  123456  0.0000
SPC            2    7781  123456  0.0000
SPC            2    7782  123456  0.0000
SPC            2    7783  123456  0.0000
SPC            2    7784  123456  0.0000
SPC            2    7785  123456  0.0000
SPC            2    7786  123456  0.0000
SPC            2    7787  123456  0.0000
SPC            2    7788  123456  0.0000
SPC            2    7789  123456  0.0000
SPC            2    7790  123456  0.0000
SPC            2    7791  123456  0.0000
SPC            2    7792  123456  0.0000
SPC            2    7793  123456  0.0000
SPC            2    7794  123456  0.0000
SPC            2    7795  123456  0.0000
SPC            2    7796  123456  0.0000
SPC            2    7797  123456  0.0000
SPC            2    7798  123456  0.0000
SPC            2    7799  123456  0.0000
SPC            2    7800  123456  0.0000
SPC            2    7801  123456  0.0000
SPC            2    7802  123456  0.0000
SPC            2    7803  123456  0.0000
SPC            2    7804  123456  0.0000
SPC            2    7805  123456  0.0000
SPC            2    7806  123456  0.0000
SPC            2    7807  123456  0.0000
SPC            2    7808  123456  0.0000
SPC            2    7809  123456  0.0000
SPC            2    7810  123456  0.0000
SPC            2    7811  123456  0.0000
SPC            2    7812  123456  0.0000
SPC            2    7813  123456  0.0000
SPC            2    7814  123456  0.0000
SPC            2    7815  123456  0.0000
SPC            2    7816  123456  0.0000
SPC            2    7817  123456  0.0000
SPC            2    7818  123456  0.0000
SPC            2    7819  123456  0.0000
SPC            2    7820  123456  0.0000
SPC            2    7821  123456  0.0000
SPC            2    7822  123456  0.0000
SPC            2    7823  123456  0.0000
SPC            2    7824  123456  0.0000
SPC            2    7825  123456  0.0000
SPC            2    7826  123456  0.0000
SPC            2    7827  123456  0.0000
SPC            2    7828  123456  0.0000
SPC            2    7829  123456  0.0000
SPC            2    7830  123456  0.0000
SPC            2    7831  123456  0.0000
SPC            2    7832  123456  0.0000
SPC            2    7833  123456  0.0000
SPC            2    7834  123456  0.0000
SPC            2    7835  123456  0.0000
SPC            2    7836  123456  0.0000
SPC            2    7837  123456  0.0000
SPC            2    7838  123456  0.0000
SPC            2    7839  123456  0.0000
SPC            2    7840  123456  0.0000
SPC            2    7841  123456  0.0000
SPC            2    7842  123456  0.0000
SPC            2    7843  123456  0.0000
SPC            2    7844  123456  0.0000
SPC            2    7845  123456  0.0000
SPC            2    7846  123456  0.0000
SPC            2    7847  123456  0.0000
SPC            2    7848  123456  0.0000
SPC            2    7849  123456  0.0000
SPC            2    7850  123456  0.0000
SPC            2    7851  123456  0.0000
SPC            2    7852  123456  0.0000
SPC            2    7853  123456  0.0000
SPC            2    7854  123456  0.0000
SPC            2    7855  123456  0.0000
SPC            2    7856  123456  0.0000
SPC            2    7857  123456  0.0000
SPC            2    7858  123456  0.0000
SPC            2    7859  123456  0.0000
SPC            2    7860  123456  0.0000
SPC            2    7861  123456  0.0000
SPC            2    7862  123456  0.0000
SPC            2    7863  123456  0.0000
SPC            2    7864  123456  0.0000
SPC            2    7865  123456  0.0000
SPC            2    7866  123456  0.0000
SPC            2    7867  123456  0.0000
SPC            2    7868  123456  0.0000
SPC            2    7869  123456  0.0000
SPC            2    7870  123456  0.0000
SPC            2    7871  123456  0.0000
SPC            2    7872  123456  0.0000
SPC            2    7873  123456  0.0000
SPC            2    7874  123456  0.0000
SPC            2    7875  123456  0.0000
SPC            2    7876  123456  0.0000
SPC            2    7877  123456  0.0000
SPC            2    7878  123456  0.0000
SPC            2    7879  123456  0.0000
SPC            2    7880  123456  0.0000
SPC            2    7881  123456  0.0000
SPC            2    7882  123456  0.0000
SPC            2    7883  123456  0.0000
SPC            2    7884  123456  0.0000
SPC            2    7885  123456  0.0000
SPC            2    7886  123456  0.0000
SPC            2    7887  123456  0.0000
SPC            2    7888  123456  0.0000
SPC            2    7889  123456  0.0000
SPC            2    7890  123456  0.0000
SPC            2    7891  123456  0.0000
SPC            2    7892  123456  0.0000
SPC            2    7893  123456  0.0000
SPC            2    7894  123456  0.0000
SPC            2    7895  123456  0.0000
SPC            2    7896  123456  0.0000
SPC            2    7897  123456  0.0000
SPC            2    7898  123456  0.0000
SPC            2    7899  123456  0.0000
SPC            2    7900  123456  0.0000
SPC            2    7901  123456  0.0000
SPC            2    7902  123456  0.0000
SPC            2    7903  123456  0.0000
SPC            2    7904  123456  0.0000
SPC            2    7905  123456  0.0000
SPC            2    7906  123456  0.0000
SPC            2    7907  123456  0.0000
SPC            2    7908  123456  0.0000
SPC            2    7909  123456  0.0000
SPC            2    7910  123456  0.0000
SPC            2    7911  123456  0.0000
SPC            2    7912  123456  0.0000
SPC            2    7913  123456  0.0000
SPC            2    7914  123456  0.0000
SPC            2    7915  123456  0.0000
SPC            2    7916  123456  0.0000
SPC            2    7917  123456  0.0000
SPC            2    7918  123456  0.0000
SPC            2    7919  123456  0.0000
SPC            2    7920  123456  0.0000
SPC            2    7921  123456  0.0000
SPC            2    7922  123456  0.0000
SPC            2    7923  123456  0.0000
SPC            2    7924  123456  0.0000
SPC            2    7925  123456  0.0000
SPC            2    7926  123456  0.0000
SPC            2    7927  123456  0.0000
SPC            2    7928  123456  0.0000
SPC            2    7929  123456  0.0000
SPC            2    7930  123456  0.0000
SPC            2    7931  123456  0.0000
SPC            2    7932  123456  0.0000
SPC            2    7933  123456  0.0000
SPC            2    7934  123456  0.0000
SPC            2    7935  123456  0.0000
SPC            2    7936  123456  0.0000
SPC            2    7937  123456  0.0000
SPC            2    7938  123456  0.0000
SPC            2    7939  123456  0.0000
SPC            2    7940  123456  0.0000
SPC            2    7941  123456  0.0000
SPC            2    7942  123456  0.0000
SPC            2    7943  123456  0.0000
SPC            2    7944  123456  0.0000
SPC            2    7945  123456  0.0000
SPC            2    7946  123456  0.0000
SPC            2    7947  123456  0.0000
SPC            2    7948  123456  0.0000
SPC            2    7949  123456  0.0000
SPC            2    7950  123456  0.0000
SPC            2    7951  123456  0.0000
SPC            2    7952  123456  0.0000
SPC            2    7953  123456  0.0000
SPC            2    7954  123456  0.0000
SPC            2    7955  123456  0.0000
SPC            2    7956  123456  0.0000
SPC            2    7957  123456  0.0000
SPC            2    7958  123456  0.0000
SPC            2    7959  123456  0.0000
SPC            2    7960  123456  0.0000
SPC            2    7961  123456  0.0000
SPC            2    7962  123456  0.0000
SPC            2    7963  123456  0.0000
SPC            2    7964  123456  0.0000
SPC            2    7965  123456  0.0000
SPC            2    7966  123456  0.0000
SPC            2    7967  123456  0.0000
SPC            2    7968  123456  0.0000
SPC            2    7969  123456  0.0000
SPC            2    7970  123456  0.0000
SPC            2    7971  123456  0.0000
SPC            2    7972  123456  0.0000
SPC            2    7973  123456  0.0000
SPC            2    7974  123456  0.0000
SPC            2    7975  123456  0.0000
SPC            2    7976  123456  0.0000
SPC            2    7977  123456  0.0000
SPC            2    7978  123456  0.0000
SPC            2    7979  123456  0.0000
SPC            2    7980  123456  0.0000
SPC            2    7981  123456  0.0000
SPC            2    7982  123456  0.0000
SPC            2    7983  123456  0.0000
SPC            2    7984  123456  0.0000
SPC            2    7985  123456  0.0000
SPC            2    7986  123456  0.0000
SPC            2    7987  123456  0.0000
SPC            2    7988  123456  0.0000
SPC            2    7989  123456  0.0000
SPC            2    7990  123456  0.0000
SPC            2    7991  123456  0.0000
SPC            2    7992  123456  0.0000
SPC            2    7993  123456  0.0000
SPC            2    7994  123456  0.0000
SPC            2    7995  123456  0.0000
SPC            2    7996  123456  0.0000
SPC            2    7997  123456  0.0000
SPC            2    7998  123456  0.0000
SPC            2    7999  123456  0.0000
SPC            2    8000  123456  0.0000
SPC            2    8001  123456  0.0000
SPC            2    8002  123456  0.0000
SPC            2    8003  123456  0.0000
SPC            2    8004  123456  0.0000
SPC            2    8005  123456  0.0000
SPC            2    8006  123456  0.0000
SPC            2    8007  123456  0.0000
SPC            2    8008  123456  0.0000
SPC            2    8009  123456  0.0000
SPC            2    8010  123456  0.0000
SPC            2    8011  123456  0.0000
SPC            2    8012  123456  0.0000
SPC            2    8013  123456  0.0000
SPC            2    8014  123456  0.0000
SPC            2    8015  123456  0.0000
SPC            2    8016  123456  0.0000
SPC            2    8017  123456  0.0000
SPC            2    8018  123456  0.0000
SPC            2    8019  123456  0.0000
SPC            2    8020  123456  0.0000
SPC            2    8021  123456  0.0000
SPC            2    8022  123456  0.0000
SPC            2    8023  123456  0.0000
SPC            2    8024  123456  0.0000
SPC            2    8025  123456  0.0000
SPC            2    8026  123456  0.0000
SPC            2    8027  123456  0.0000
SPC            2    8028  123456  0.0000
SPC            2    8029  123456  0.0000
SPC            2    8030  123456  0.0000
SPC            2    8031  123456  0.0000
SPC            2    8032  123456  0.0000
SPC            2    8033  123456  0.0000
SPC            2    8034  123456  0.0000
SPC            2    8035  123456  0.0000
SPC            2    8036  123456  0.0000
SPC            2    8037  123456  0.0000
SPC            2    8038  123456  0.0000
SPC            2    8039  123456  0.0000
SPC            2    8040  123456  0.0000
SPC            2    8041  123456  0.0000
SPC            2    8042  123456  0.0000
SPC            2    8043  123456  0.0000
SPC            2    8044  123456  0.0000
SPC            2    8045  123456  0.0000
SPC            2    8046  123456  0.0000
SPC            2    8047  123456  0.0000
SPC            2    8048  123456  0.0000
SPC            2    8049  123456  0.0000
SPC            2    8050  123456  0.0000
SPC            2    8051  123456  0.0000
SPC            2    8052  123456  0.0000
SPC            2    8053  123456  0.0000
SPC            2    8054  123456  0.0000
SPC            2    8055  123456  0.0000
SPC            2    8056  123456  0.0000
SPC            2    8057  123456  0.0000
SPC            2    8058  123456  0.0000
SPC            2    8059  123456  0.0000
SPC            2    8060  123456  0.0000
SPC            2    8061  123456  0.0000
SPC            2    8062  123456  0.0000
SPC            2    8063  123456  0.0000
SPC            2    8064  123456  0.0000
SPC            2    8065  123456  0.0000
SPC            2    8066  123456  0.0000
SPC            2    8067  123456  0.0000
SPC            2    8068  123456  0.0000
SPC            2    8069  123456  0.0000
SPC            2    8070  123456  0.0000
SPC            2    8071  123456  0.0000
SPC            2    8072  123456  0.0000
SPC            2    8073  123456  0.0000
SPC            2    8074  123456  0.0000
SPC            2    8075  123456  0.0000
SPC            2    8076  123456  0.0000
SPC            2    8077  123456  0.0000
SPC            2    8078  123456  0.0000
SPC            2    8079  123456  0.0000
SPC            2    8080  123456  0.0000
SPC            2    8081  123456  0.0000
SPC            2    8082  123456  0.0000
SPC            2    8083  123456  0.0000
SPC            2    8084  123456  0.0000
SPC            2    8085  123456  0.0000
SPC            2    8086  123456  0.0000
SPC            2    8087  123456  0.0000
SPC            2    8088  123456  0.0000
SPC            2    8089  123456  0.0000
SPC            2    8090  123456  0.0000
SPC            2    8091  123456  0.0000
SPC            2    8092  123456  0.0000
SPC            2    8093  123456  0.0000
SPC            2    8094  123456  0.0000
SPC            2    8095  123456  0.0000
SPC            2    8096  123456  0.0000
SPC            2    8097  123456  0.0000
SPC            2    8098  123456  0.0000
SPC            2    8099  123456  0.0000
SPC            2    8100  123456  0.0000
SPC            2    8101  123456  0.0000
SPC            2    8102  123456  0.0000
SPC            2    8103  123456  0.0000
SPC            2    8104  123456  0.0000
SPC            2    8105  123456  0.0000
SPC            2    8106  123456  0.0000
SPC            2    8107  123456  0.0000
SPC            2    8108  123456  0.0000
SPC            2    8109  123456  0.0000
SPC            2    8110  123456  0.0000
SPC            2    8111  123456  0.0000
SPC            2    8112  123456  0.0000
SPC            2    8113  123456  0.0000
SPC            2    8114  123456  0.0000
SPC            2    8115  123456  0.0000
SPC            2    8116  123456  0.0000
SPC            2    8117  123456  0.0000
SPC            2    8118  123456  0.0000
SPC            2    8119  123456  0.0000
SPC            2    8120  123456  0.0000
SPC            2    8121  123456  0.0000
SPC            2    8122  123456  0.0000
SPC            2    8123  123456  0.0000
SPC            2    8124  123456  0.0000
SPC            2    8125  123456  0.0000
SPC            2    8126  123456  0.0000
SPC            2    8127  123456  0.0000
SPC            2    8128  123456  0.0000
SPC            2    8129  123456  0.0000
SPC            2    8130  123456  0.0000
SPC            2    8131  123456  0.0000
SPC            2    8132  123456  0.0000
SPC            2    8133  123456  0.0000
SPC            2    8134  123456  0.0000
SPC            2    8135  123456  0.0000
SPC            2    8136  123456  0.0000
SPC            2    8137  123456  0.0000
SPC            2    8138  123456  0.0000
SPC            2    8139  123456  0.0000
SPC            2    8140  123456  0.0000
SPC            2    8141  123456  0.0000
SPC            2    8142  123456  0.0000
SPC            2    8143  123456  0.0000
SPC            2    8144  123456  0.0000
SPC            2    8145  123456  0.0000
SPC            2    8146  123456  0.0000
SPC            2    8147  123456  0.0000
SPC            2    8148  123456  0.0000
SPC            2    8149  123456  0.0000
SPC            2    8150  123456  0.0000
SPC            2    8151  123456  0.0000
SPC            2    8152  123456  0.0000
SPC            2    8153  123456  0.0000
SPC            2    8154  123456  0.0000
SPC            2    8155  123456  0.0000
SPC            2    8156  123456  0.0000
SPC            2    8157  123456  0.0000
SPC            2    8158  123456  0.0000
SPC            2    8159  123456  0.0000
SPC            2    8160  123456  0.0000
SPC            2    8161  123456  0.0000
SPC            2    8162  123456  0.0000
SPC            2    8163  123456  0.0000
SPC            2    8164  123456  0.0000
SPC            2    8165  123456  0.0000
SPC            2    8166  123456  0.0000
SPC            2    8167  123456  0.0000
SPC            2    8168  123456  0.0000
SPC            2    8169  123456  0.0000
SPC            2    8170  123456  0.0000
SPC            2    8171  123456  0.0000
SPC            2    8172  123456  0.0000
SPC            2    8173  123456  0.0000
SPC            2    8174  123456  0.0000
SPC            2    8175  123456  0.0000
SPC            2    8176  123456  0.0000
SPC            2    8177  123456  0.0000
SPC            2    8178  123456  0.0000
SPC            2    8179  123456  0.0000
SPC            2    8180  123456  0.0000
SPC            2    8181  123456  0.0000
SPC            2    8182  123456  0.0000
SPC            2    8183  123456  0.0000
SPC            2    8184  123456  0.0000
SPC            2    8185  123456  0.0000
SPC            2    8186  123456  0.0000
SPC            2    8187  123456  0.0000
SPC            2    8188  123456  0.0000
SPC            2    8189  123456  0.0000
SPC            2    8190  123456  0.0000
SPC            2    8191  123456  0.0000
SPC            2    8192  123456  0.0000
SPC            2    8193  123456  0.0000
SPC            2    8194  123456  0.0000
SPC            2    8195  123456  0.0000
SPC            2    8196  123456  0.0000
SPC            2    8197  123456  0.0000
SPC            2    8198  123456  0.0000
SPC            2    8199  123456  0.0000
SPC            2    8200  123456  0.0000
SPC            2    8201  123456  0.0000
SPC            2    8202  123456  0.0000
SPC            2    8203  123456  0.0000
SPC            2    8204  123456  0.0000
SPC            2    8205  123456  0.0000
SPC            2    8206  123456  0.0000
SPC            2    8207  123456  0.0000
SPC            2    8208  123456  0.0000
SPC            2    8209  123456  0.0000
SPC            2    8210  123456  0.0000
SPC            2    8211  123456  0.0000
SPC            2    8212  123456  0.0000
SPC            2    8213  123456  0.0000
SPC            2    8214  123456  0.0000
SPC            2    8215  123456  0.0000
SPC            2    8216  123456  0.0000
SPC            2    8217  123456  0.0000
SPC            2    8218  123456  0.0000
SPC            2    8219  123456  0.0000
SPC            2    8220  123456  0.0000
SPC            2    8221  123456  0.0000
SPC            2    8222  123456  0.0000
SPC            2    8223  123456  0.0000
SPC            2    8224  123456  0.0000
SPC            2    8225  123456  0.0000
SPC            2    8226  123456  0.0000
SPC            2    8227  123456  0.0000
SPC            2    8228  123456  0.0000
SPC            2    8229  123456  0.0000
SPC            2    8230  123456  0.0000
SPC            2    8231  123456  0.0000
SPC            2    8232  123456  0.0000
SPC            2    8233  123456  0.0000
SPC            2    8234  123456  0.0000
SPC            2    8235  123456  0.0000
SPC            2    8236  123456  0.0000
SPC            2    8237  123456  0.0000
SPC            2    8238  123456  0.0000
SPC            2    8239  123456  0.0000
SPC            2    8240  123456  0.0000
SPC            2    8241  123456  0.0000
SPC            2    8242  123456  0.0000
SPC            2    8243  123456  0.0000
SPC            2    8244  123456  0.0000
SPC            2    8245  123456  0.0000
SPC            2    8246  123456  0.0000
SPC            2    8247  123456  0.0000
SPC            2    8248  123456  0.0000
SPC            2    8249  123456  0.0000
SPC            2    8250  123456  0.0000
SPC            2    8251  123456  0.0000
SPC            2    8252  123456  0.0000
SPC            2    8253  123456  0.0000
SPC            2    8254  123456  0.0000
SPC            2    8255  123456  0.0000
SPC            2    8256  123456  0.0000
SPC            2    8257  123456  0.0000
SPC            2    8258  123456  0.0000
SPC            2    8259  123456  0.0000
SPC            2    8260  123456  0.0000
SPC            2    8261  123456  0.0000
SPC            2    8262  123456  0.0000
SPC            2    8263  123456  0.0000
SPC            2    8264  123456  0.0000
SPC            2    8265  123456  0.0000
SPC            2    8266  123456  0.0000
SPC            2    8267  123456  0.0000
SPC            2    8268  123456  0.0000
SPC            2    8269  123456  0.0000
SPC            2    8270  123456  0.0000
SPC            2    8271  123456  0.0000
SPC            2    8272  123456  0.0000
SPC            2    8273  123456  0.0000
SPC            2    8274  123456  0.0000
SPC            2    8275  123456  0.0000
SPC            2    8276  123456  0.0000
SPC            2    8277  123456  0.0000
SPC            2    8278  123456  0.0000
SPC            2    8279  123456  0.0000
SPC            2    8280  123456  0.0000
SPC            2    8281  123456  0.0000
SPC            2    8282  123456  0.0000
SPC            2    8283  123456  0.0000
SPC            2    8284  123456  0.0000
SPC            2    8285  123456  0.0000
SPC            2    8286  123456  0.0000
SPC            2    8287  123456  0.0000
SPC            2    8288  123456  0.0000
SPC            2    8289  123456  0.0000
SPC            2    8290  123456  0.0000
SPC            2    8291  123456  0.0000
SPC            2    8292  123456  0.0000
SPC            2    8293  123456  0.0000
SPC            2    8294  123456  0.0000
SPC            2    8295  123456  0.0000
SPC            2    8296  123456  0.0000
SPC            2    8297  123456  0.0000
SPC            2    8298  123456  0.0000
SPC            2    8299  123456  0.0000
SPC            2    8300  123456  0.0000
SPC            2    8301  123456  0.0000
SPC            2    8302  123456  0.0000
SPC            2    8303  123456  0.0000
SPC            2    8304  123456  0.0000
SPC            2    8305  123456  0.0000
SPC            2    8306  123456  0.0000
SPC            2    8307  123456  0.0000
SPC            2    8308  123456  0.0000
SPC            2    8309  123456  0.0000
SPC            2    8310  123456  0.0000
SPC            2    8311  123456  0.0000
SPC            2    8312  123456  0.0000
SPC            2    8313  123456  0.0000
SPC            2    8314  123456  0.0000
SPC            2    8315  123456  0.0000
SPC            2    8316  123456  0.0000
SPC            2    8317  123456  0.0000
SPC            2    8318  123456  0.0000
SPC            2    8319  123456  0.0000
SPC            2    8320  123456  0.0000
SPC            2    8321  123456  0.0000
SPC            2    8322  123456  0.0000
SPC            2    8323  123456  0.0000
SPC            2    8324  123456  0.0000
SPC            2    8325  123456  0.0000
SPC            2    8326  123456  0.0000
SPC            2    8327  123456  0.0000
SPC            2    8328  123456  0.0000
SPC            2    8329  123456  0.0000
SPC            2    8330  123456  0.0000
SPC            2    8331  123456  0.0000
SPC            2    8332  123456  0.0000
SPC            2    8333  123456  0.0000
SPC            2    8334  123456  0.0000
SPC            2    8335  123456  0.0000
SPC            2    8336  123456  0.0000
SPC            2    8337  123456  0.0000
SPC            2    8338  123456  0.0000
SPC            2    8339  123456  0.0000
SPC            2    8340  123456  0.0000
SPC            2    8341  123456  0.0000
SPC            2    8342  123456  0.0000
SPC            2    8343  123456  0.0000
SPC            2    8344  123456  0.0000
SPC            2    8345  123456  0.0000
SPC            2    8346  123456  0.0000
SPC            2    8347  123456  0.0000
SPC            2    8348  123456  0.0000
SPC            2    8349  123456  0.0000
SPC            2    8350  123456  0.0000
SPC            2    8351  123456  0.0000
SPC            2    8352  123456  0.0000
SPC            2    8353  123456  0.0000
SPC            2    8354  123456  0.0000
SPC            2    8355  123456  0.0000
SPC            2    8356  123456  0.0000
SPC            2    8357  123456  0.0000
SPC            2    8358  123456  0.0000
SPC            2    8359  123456  0.0000
SPC            2    8360  123456  0.0000
SPC            2    8361  123456  0.0000
SPC            2    8362  123456  0.0000
SPC            2    8363  123456  0.0000
SPC            2    8364  123456  0.0000
SPC            2    8365  123456  0.0000
SPC            2    8366  123456  0.0000
SPC            2    8367  123456  0.0000
SPC            2    8368  123456  0.0000
SPC            2    8369  123456  0.0000
SPC            2    8370  123456  0.0000
SPC            2    8371  123456  0.0000
SPC            2    8372  123456  0.0000
SPC            2    8373  123456  0.0000
SPC            2    8374  123456  0.0000
SPC            2    8375  123456  0.0000
SPC            2    8376  123456  0.0000
SPC            2    8377  123456  0.0000
SPC            2    8378  123456  0.0000
SPC            2    8379  123456  0.0000
SPC            2    8380  123456  0.0000
SPC            2    8381  123456  0.0000
SPC            2    8382  123456  0.0000
SPC            2    8383  123456  0.0000
SPC            2    8384  123456  0.0000
SPC            2    8385  123456  0.0000
SPC            2    8386  123456  0.0000
SPC            2    8387  123456  0.0000
SPC            2    8388  123456  0.0000
SPC            2    8389  123456  0.0000
SPC            2    8390  123456  0.0000
SPC            2    8391  123456  0.0000
SPC            2    8392  123456  0.0000
SPC            2    8393  123456  0.0000
SPC            2    8394  123456  0.0000
SPC            2    8395  123456  0.0000
SPC            2    8396  123456  0.0000
SPC            2    8397  123456  0.0000
SPC            2    8398  123456  0.0000
SPC            2    8399  123456  0.0000
SPC            2    8400  123456  0.0000
SPC            2    8401  123456  0.0000
SPC            2    8402  123456  0.0000
SPC            2    8403  123456  0.0000
SPC            2    8404  123456  0.0000
SPC            2    8405  123456  0.0000
SPC            2    8406  123456  0.0000
SPC            2    8407  123456  0.0000
SPC            2    8408  123456  0.0000
SPC            2    8409  123456  0.0000
SPC            2    8410  123456  0.0000
SPC            2    8411  123456  0.0000
SPC            2    8412  123456  0.0000
SPC            2    8413  123456  0.0000
SPC            2    8414  123456  0.0000
SPC            2    8415  123456  0.0000
SPC            2    8416  123456  0.0000
SPC            2    8417  123456  0.0000
SPC            2    8418  123456  0.0000
SPC            2    8419  123456  0.0000
SPC            2    8420  123456  0.0000
SPC            2    8421  123456  0.0000
SPC            2    8422  123456  0.0000
SPC            2    8423  123456  0.0000
SPC            2    8424  123456  0.0000
SPC            2    8425  123456  0.0000
SPC            2    8426  123456  0.0000
SPC            2    8427  123456  0.0000
SPC            2    8428  123456  0.0000
SPC            2    8429  123456  0.0000
SPC            2    8430  123456  0.0000
SPC            2    8431  123456  0.0000
SPC            2    8432  123456  0.0000
SPC            2    8433  123456  0.0000
SPC            2    8434  123456  0.0000
SPC            2    8435  123456  0.0000
SPC            2    8436  123456  0.0000
SPC            2    8437  123456  0.0000
SPC            2    8438  123456  0.0000
SPC            2    8439  123456  0.0000
SPC            2    8440  123456  0.0000
SPC            2    8441  123456  0.0000
SPC            2    8442  123456  0.0000
SPC            2    8443  123456  0.0000
SPC            2    8444  123456  0.0000
SPC            2    8445  123456  0.0000
SPC            2    8446  123456  0.0000
SPC            2    8447  123456  0.0000
SPC            2    8448  123456  0.0000
SPC            2    8449  123456  0.0000
SPC            2    8450  123456  0.0000
SPC            2    8451  123456  0.0000
SPC            2    8452  123456  0.0000
SPC            2    8453  123456  0.0000
SPC            2    8454  123456  0.0000
SPC            2    8455  123456  0.0000
SPC            2    8456  123456  0.0000
SPC            2    8457  123456  0.0000
SPC            2    8458  123456  0.0000
SPC            2    8459  123456  0.0000
SPC            2    8460  123456  0.0000
SPC            2    8461  123456  0.0000
SPC            2    8462  123456  0.0000
SPC            2    8463  123456  0.0000
SPC            2    8464  123456  0.0000
SPC            2    8465  123456  0.0000
SPC            2    8466  123456  0.0000
SPC            2    8467  123456  0.0000
SPC            2    8468  123456  0.0000
SPC            2    8469  123456  0.0000
SPC            2    8470  123456  0.0000
SPC            2    8471  123456  0.0000
SPC            2    8472  123456  0.0000
SPC            2    8473  123456  0.0000
SPC            2    8474  123456  0.0000
SPC            2    8475  123456  0.0000
SPC            2    8476  123456  0.0000
SPC            2    8477  123456  0.0000
SPC            2    8478  123456  0.0000
SPC            2    8479  123456  0.0000
SPC            2    8480  123456  0.0000
SPC            2    8481  123456  0.0000
SPC            2    8482  123456  0.0000
SPC            2    8483  123456  0.0000
SPC            2    8484  123456  0.0000
SPC            2    8485  123456  0.0000
SPC            2    8486  123456  0.0000
SPC            2    8487  123456  0.0000
SPC            2    8488  123456  0.0000
SPC            2    8489  123456  0.0000
SPC            2    8490  123456  0.0000
SPC            2    8491  123456  0.0000
SPC            2    8492  123456  0.0000
SPC            2    8493  123456  0.0000
SPC            2    8494  123456  0.0000
SPC            2    8495  123456  0.0000
SPC            2    8496  123456  0.0000
SPC            2    8497  123456  0.0000
SPC            2    8498  123456  0.0000
SPC            2    8499  123456  0.0000
SPC            2    8500  123456  0.0000
SPC            2    8501  123456  0.0000
SPC            2    8502  123456  0.0000
SPC            2    8503  123456  0.0000
SPC            2    8504  123456  0.0000
SPC            2    8505  123456  0.0000
SPC            2    8506  123456  0.0000
SPC            2    8507  123456  0.0000
SPC            2    8508  123456  0.0000
SPC            2    8509  123456  0.0000
SPC            2    8510  123456  0.0000
SPC            2    8511  123456  0.0000
SPC            2    8512  123456  0.0000
SPC            2    8513  123456  0.0000
SPC            2    8514  123456  0.0000
SPC            2    8515  123456  0.0000
SPC            2    8516  123456  0.0000
SPC            2    8517  123456  0.0000
SPC            2    8518  123456  0.0000
SPC            2    8519  123456  0.0000
SPC            2    8520  123456  0.0000
SPC            2    8521  123456  0.0000
SPC            2    8522  123456  0.0000
SPC            2    8523  123456  0.0000
SPC            2    8524  123456  0.0000
SPC            2    8525  123456  0.0000
SPC            2    8526  123456  0.0000
SPC            2    8527  123456  0.0000
SPC            2    8528  123456  0.0000
SPC            2    8529  123456  0.0000
SPC            2    8530  123456  0.0000
SPC            2    8531  123456  0.0000
SPC            2    8532  123456  0.0000
SPC            2    8533  123456  0.0000
SPC            2    8534  123456  0.0000
SPC            2    8535  123456  0.0000
SPC            2    8536  123456  0.0000
SPC            2    8537  123456  0.0000
SPC            2    8538  123456  0.0000
SPC            2    8539  123456  0.0000
SPC            2    8540  123456  0.0000
SPC            2    8541  123456  0.0000
SPC            2    8542  123456  0.0000
SPC            2    8543  123456  0.0000
SPC            2    8544  123456  0.0000
SPC            2    8545  123456  0.0000
SPC            2    8546  123456  0.0000
SPC            2    8547  123456  0.0000
SPC            2    8548  123456  0.0000
SPC            2    8549  123456  0.0000
SPC            2    8550  123456  0.0000
SPC            2    8551  123456  0.0000
SPC            2    8552  123456  0.0000
SPC            2    8553  123456  0.0000
SPC            2    8554  123456  0.0000
SPC            2    8555  123456  0.0000
SPC            2    8556  123456  0.0000
SPC            2    8557  123456  0.0000
SPC            2    8558  123456  0.0000
SPC            2    8559  123456  0.0000
SPC            2    8560  123456  0.0000
SPC            2    8561  123456  0.0000
SPC            2    8562  123456  0.0000
SPC            2    8563  123456  0.0000
SPC            2    8564  123456  0.0000
SPC            2    8565  123456  0.0000
SPC            2    8566  123456  0.0000
SPC            2    8567  123456  0.0000
SPC            2    8568  123456  0.0000
SPC            2    8569  123456  0.0000
SPC            2    8570  123456  0.0000
SPC            2    8571  123456  0.0000
SPC            2    8572  123456  0.0000
SPC            2    8573  123456  0.0000
SPC            2    8574  123456  0.0000
SPC            2    8575  123456  0.0000
SPC            2    8576  123456  0.0000
SPC            2    8577  123456  0.0000
SPC            2    8578  123456  0.0000
SPC            2    8579  123456  0.0000
SPC            2    8580  123456  0.0000
SPC            2    8581  123456  0.0000
SPC            2    8582  123456  0.0000
SPC            2    8583  123456  0.0000
SPC            2    8584  123456  0.0000
SPC            2    8585  123456  0.0000
SPC            2    8586  123456  0.0000
SPC            2    8587  123456  0.0000
SPC            2    8588  123456  0.0000
SPC            2    8589  123456  0.0000
SPC            2    8590  123456  0.0000
SPC            2    8591  123456  0.0000
SPC            2    8592  123456  0.0000
SPC            2    8593  123456  0.0000
SPC            2    8594  123456  0.0000
SPC            2    8595  123456  0.0000
SPC            2    8596  123456  0.0000
SPC            2    8597  123456  0.0000
SPC            2    8598  123456  0.0000
SPC            2    8599  123456  0.0000
SPC            2    8600  123456  0.0000
SPC            2    8601  123456  0.0000
SPC            2    8602  123456  0.0000
SPC            2    8603  123456  0.0000
SPC            2    8604  123456  0.0000
SPC            2    8605  123456  0.0000
SPC            2    8606  123456  0.0000
SPC            2    8607  123456  0.0000
SPC            2    8608  123456  0.0000
SPC            2    8609  123456  0.0000
SPC            2    8610  123456  0.0000
SPC            2    8611  123456  0.0000
SPC            2    8612  123456  0.0000
SPC            2    8613  123456  0.0000
SPC            2    8614  123456  0.0000
SPC            2    8615  123456  0.0000
SPC            2    8616  123456  0.0000
SPC            2    8617  123456  0.0000
SPC            2    8618  123456  0.0000
SPC            2    8619  123456  0.0000
SPC            2    8620  123456  0.0000
SPC            2    8621  123456  0.0000
SPC            2    8622  123456  0.0000
SPC            2    8623  123456  0.0000
SPC            2    8624  123456  0.0000
SPC            2    8625  123456  0.0000
SPC            2    8626  123456  0.0000
SPC            2    8627  123456  0.0000
SPC            2    8628  123456  0.0000
SPC            2    8629  123456  0.0000
SPC            2    8630  123456  0.0000
SPC            2    8631  123456  0.0000
SPC            2    8632  123456  0.0000
SPC            2    8633  123456  0.0000
SPC            2    8634  123456  0.0000
SPC            2    8635  123456  0.0000
SPC            2    8636  123456  0.0000
SPC            2    8637  123456  0.0000
SPC            2    8638  123456  0.0000
SPC            2    8639  123456  0.0000
SPC            2    8640  123456  0.0000
SPC            2    8641  123456  0.0000
SPC            2    8642  123456  0.0000
SPC            2    8643  123456  0.0000
SPC            2    8644  123456  0.0000
SPC            2    8645  123456  0.0000
SPC            2    8646  123456  0.0000
SPC            2    8647  123456  0.0000
SPC            2    8648  123456  0.0000
SPC            2    8649  123456  0.0000
SPC            2    8650  123456  0.0000
SPC            2    8651  123456  0.0000
SPC            2    8652  123456  0.0000
SPC            2    8653  123456  0.0000
SPC            2    8654  123456  0.0000
SPC            2    8655  123456  0.0000
SPC            2    8656  123456  0.0000
SPC            2    8657  123456  0.0000
SPC            2    8658  123456  0.0000
SPC            2    8659  123456  0.0000
SPC            2    8660  123456  0.0000
SPC            2    8661  123456  0.0000
SPC            2    8662  123456  0.0000
SPC            2    8663  123456  0.0000
SPC            2    8664  123456  0.0000
SPC            2    8665  123456  0.0000
SPC            2    8666  123456  0.0000
SPC            2    8667  123456  0.0000
SPC            2    8668  123456  0.0000
SPC            2    8669  123456  0.0000
SPC            2    8670  123456  0.0000
SPC            2    8671  123456  0.0000
SPC            2    8672  123456  0.0000
SPC            2    8673  123456  0.0000
SPC            2    8674  123456  0.0000
SPC            2    8675  123456  0.0000
SPC            2    8676  123456  0.0000
SPC            2    8677  123456  0.0000
SPC            2    8678  123456  0.0000
SPC            2    8679  123456  0.0000
SPC            2    8680  123456  0.0000
SPC            2    8681  123456  0.0000
SPC            2    8682  123456  0.0000
SPC            2    8683  123456  0.0000
SPC            2    8684  123456  0.0000
SPC            2    8685  123456  0.0000
SPC            2    8686  123456  0.0000
SPC            2    8687  123456  0.0000
SPC            2    8688  123456  0.0000
SPC            2    8689  123456  0.0000
SPC            2    8690  123456  0.0000
SPC            2    8691  123456  0.0000
SPC            2    8692  123456  0.0000
SPC            2    8693  123456  0.0000
SPC            2    8694  123456  0.0000
SPC            2    8695  123456  0.0000
SPC            2    8696  123456  0.0000
SPC            2    8697  123456  0.0000
SPC            2    8698  123456  0.0000
SPC            2    8699  123456  0.0000
SPC            2    8700  123456  0.0000
SPC            2    8701  123456  0.0000
SPC            2    8702  123456  0.0000
SPC            2    8703  123456  0.0000
SPC            2    8704  123456  0.0000
SPC            2    8705  123456  0.0000
SPC            2    8706  123456  0.0000
SPC            2    8707  123456  0.0000
SPC            2    8708  123456  0.0000
SPC            2    8709  123456  0.0000
SPC            2    8710  123456  0.0000
SPC            2    8711  123456  0.0000
SPC            2    8712  123456  0.0000
SPC            2    8713  123456  0.0000
SPC            2    8714  123456  0.0000
SPC            2    8715  123456  0.0000
SPC            2    8716  123456  0.0000
SPC            2    8717  123456  0.0000
SPC            2    8718  123456  0.0000
SPC            2    8719  123456  0.0000
SPC            2    8720  123456  0.0000
SPC            2    8721  123456  0.0000
SPC            2    8722  123456  0.0000
SPC            2    8723  123456  0.0000
SPC            2    8724  123456  0.0000
SPC            2    8725  123456  0.0000
SPC            2    8726  123456  0.0000
SPC            2    8727  123456  0.0000
SPC            2    8728  123456  0.0000
SPC            2    8729  123456  0.0000
SPC            2    8730  123456  0.0000
SPC            2    8731  123456  0.0000
SPC            2    8732  123456  0.0000
SPC            2    8733  123456  0.0000
SPC            2    8734  123456  0.0000
SPC            2    8735  123456  0.0000
SPC            2    8736  123456  0.0000
SPC            2    8737  123456  0.0000
SPC            2    8738  123456  0.0000
SPC            2    8739  123456  0.0000
SPC            2    8740  123456  0.0000
SPC            2    8741  123456  0.0000
SPC            2    8742  123456  0.0000
SPC            2    8743  123456  0.0000
SPC            2    8744  123456  0.0000
SPC            2    8745  123456  0.0000
SPC            2    8746  123456  0.0000
SPC            2    8747  123456  0.0000
SPC            2    8748  123456  0.0000
SPC            2    8749  123456  0.0000
SPC            2    8750  123456  0.0000
SPC            2    8751  123456  0.0000
SPC            2    8752  123456  0.0000
SPC            2    8753  123456  0.0000
SPC            2    8754  123456  0.0000
SPC            2    8755  123456  0.0000
SPC            2    8756  123456  0.0000
SPC            2    8757  123456  0.0000
SPC            2    8758  123456  0.0000
SPC            2    8759  123456  0.0000
SPC            2    8760  123456  0.0000
SPC            2    8761  123456  0.0000
SPC            2    8762  123456  0.0000
SPC            2    8763  123456  0.0000
SPC            2    8764  123456  0.0000
SPC            2    8765  123456  0.0000
SPC            2    8766  123456  0.0000
SPC            2    8767  123456  0.0000
SPC            2    8768  123456  0.0000
SPC            2    8769  123456  0.0000
SPC            2    8770  123456  0.0000
SPC            2    8771  123456  0.0000
SPC            2    8772  123456  0.0000
SPC            2    8773  123456  0.0000
SPC            2    8774  123456  0.0000
SPC            2    8775  123456  0.0000
SPC            2    8776  123456  0.0000
SPC            2    8777  123456  0.0000
SPC            2    8778  123456  0.0000
SPC            2    8779  123456  0.0000
SPC            2    8780  123456  0.0000
SPC            2    8781  123456  0.0000
SPC            2    8782  123456  0.0000
SPC            2    8783  123456  0.0000
SPC            2    8784  123456  0.0000
SPC            2    8785  123456  0.0000
SPC            2    8786  123456  0.0000
SPC            2    8787  123456  0.0000
SPC            2    8788  123456  0.0000
SPC            2    8789  123456  0.0000
SPC            2    8790  123456  0.0000
SPC            2    8791  123456  0.0000
SPC            2    8792  123456  0.0000
SPC            2    8793  123456  0.0000
SPC            2    8794  123456  0.0000
SPC            2    8795  123456  0.0000
SPC            2    8796  123456  0.0000
SPC            2    8797  123456  0.0000
SPC            2    8798  123456  0.0000
SPC            2    8799  123456  0.0000
SPC            2    8800  123456  0.0000
SPC            2    8801  123456  0.0000
SPC            2    8802  123456  0.0000
SPC            2    8803  123456  0.0000
SPC            2    8804  123456  0.0000
SPC            2    8805  123456  0.0000
SPC            2    8806  123456  0.0000
SPC            2    8807  123456  0.0000
SPC            2    8808  123456  0.0000
SPC            2    8809  123456  0.0000
SPC            2    8810  123456  0.0000
SPC            2    8811  123456  0.0000
SPC            2    8812  123456  0.0000
SPC            2    8813  123456  0.0000
SPC            2    8814  123456  0.0000
SPC            2    8815  123456  0.0000
SPC            2    8816  123456  0.0000
SPC            2    8817  123456  0.0000
SPC            2    8818  123456  0.0000
SPC            2    8819  123456  0.0000
SPC            2    8820  123456  0.0000
SPC            2    8821  123456  0.0000
SPC            2    8822  123456  0.0000
SPC            2    8823  123456  0.0000
SPC            2    8824  123456  0.0000
SPC            2    8825  123456  0.0000
SPC            2    8826  123456  0.0000
SPC            2    8827  123456  0.0000
SPC            2    8828  123456  0.0000
SPC            2    8829  123456  0.0000
SPC            2    8830  123456  0.0000
SPC            2    8831  123456  0.0000
SPC            2    8832  123456  0.0000
SPC            2    8833  123456  0.0000
SPC            2    8834  123456  0.0000
SPC            2    8835  123456  0.0000
SPC            2    8836  123456  0.0000
SPC            2    8837  123456  0.0000
SPC            2    8838  123456  0.0000
SPC            2    8839  123456  0.0000
SPC            2    8840  123456  0.0000
SPC            2    8841  123456  0.0000
SPC            2    8842  123456  0.0000
SPC            2    8843  123456  0.0000
SPC            2    8844  123456  0.0000
SPC            2    8845  123456  0.0000
SPC            2    8846  123456  0.0000
SPC            2    8847  123456  0.0000
SPC            2    8848  123456  0.0000
SPC            2    8849  123456  0.0000
SPC            2    8850  123456  0.0000
SPC            2    8851  123456  0.0000
SPC            2    8852  123456  0.0000
SPC            2    8853  123456  0.0000
SPC            2    8854  123456  0.0000
SPC            2    8855  123456  0.0000
SPC            2    8856  123456  0.0000
SPC            2    8857  123456  0.0000
SPC            2    8858  123456  0.0000
SPC            2    8859  123456  0.0000
SPC            2    8860  123456  0.0000
SPC            2    8861  123456  0.0000
SPC            2    8862  123456  0.0000
SPC            2    8863  123456  0.0000
SPC            2    8864  123456  0.0000
SPC            2    8865  123456  0.0000
SPC            2    8866  123456  0.0000
SPC            2    8867  123456  0.0000
SPC            2    8868  123456  0.0000
SPC            2    8869  123456  0.0000
SPC            2    8870  123456  0.0000
SPC            2    8871  123456  0.0000
SPC            2    8872  123456  0.0000
SPC            2    8873  123456  0.0000
SPC            2    8874  123456  0.0000
SPC            2    8875  123456  0.0000
SPC            2    8876  123456  0.0000
SPC            2    8877  123456  0.0000
SPC            2    8878  123456  0.0000
SPC            2    8879  123456  0.0000
SPC            2    8880  123456  0.0000
SPC            2    8881  123456  0.0000
SPC            2    8882  123456  0.0000
SPC            2    8883  123456  0.0000
SPC            2    8884  123456  0.0000
SPC            2    8885  123456  0.0000
SPC            2    8886  123456  0.0000
SPC            2    8887  123456  0.0000
SPC            2    8888  123456  0.0000
SPC            2    8889  123456  0.0000
SPC            2    8890  123456  0.0000
SPC            2    8891  123456  0.0000
SPC            2    8892  123456  0.0000
SPC            2    8893  123456  0.0000
SPC            2    8894  123456  0.0000
SPC            2    8895  123456  0.0000
SPC            2    8896  123456  0.0000
SPC            2    8897  123456  0.0000
SPC            2    8898  123456  0.0000
SPC            2    8899  123456  0.0000
SPC            2    8900  123456  0.0000
SPC            2    8901  123456  0.0000
SPC            2    8902  123456  0.0000
SPC            2    8903  123456  0.0000
SPC            2    8904  123456  0.0000
SPC            2    8905  123456  0.0000
SPC            2    8906  123456  0.0000
SPC            2    8907  123456  0.0000
SPC            2    8908  123456  0.0000
SPC            2    8909  123456  0.0000
SPC            2    8910  123456  0.0000
SPC            2    8911  123456  0.0000
SPC            2    8912  123456  0.0000
SPC            2    8913  123456  0.0000
SPC            2    8914  123456  0.0000
SPC            2    8915  123456  0.0000
SPC            2    8916  123456  0.0000
SPC            2    8917  123456  0.0000
SPC            2    8918  123456  0.0000
SPC            2    8919  123456  0.0000
SPC            2    8920  123456  0.0000
SPC            2    8921  123456  0.0000
SPC            2    8922  123456  0.0000
SPC            2    8923  123456  0.0000
SPC            2    8924  123456  0.0000
SPC            2    8925  123456  0.0000
SPC            2    8926  123456  0.0000
SPC            2    8927  123456  0.0000
SPC            2    8928  123456  0.0000
SPC            2    8929  123456  0.0000
SPC            2    8930  123456  0.0000
SPC            2    8931  123456  0.0000
SPC            2    8932  123456  0.0000
SPC            2    8933  123456  0.0000
SPC            2    8934  123456  0.0000
SPC            2    8935  123456  0.0000
SPC            2    8936  123456  0.0000
SPC            2    8937  123456  0.0000
SPC            2    8938  123456  0.0000
SPC            2    8939  123456  0.0000
SPC            2    8940  123456  0.0000
SPC            2    8941  123456  0.0000
SPC            2    8942  123456  0.0000
SPC            2    8943  123456  0.0000
SPC            2    8944  123456  0.0000
SPC            2    8945  123456  0.0000
SPC            2    8946  123456  0.0000
SPC            2    8947  123456  0.0000
SPC            2    8948  123456  0.0000
SPC            2    8949  123456  0.0000
SPC            2    8950  123456  0.0000
SPC            2    8951  123456  0.0000
SPC            2    8952  123456  0.0000
SPC            2    8953  123456  0.0000
SPC            2    8954  123456  0.0000
SPC            2    8955  123456  0.0000
SPC            2    8956  123456  0.0000
SPC            2    8957  123456  0.0000
SPC            2    8958  123456  0.0000
SPC            2    8959  123456  0.0000
SPC            2    8960  123456  0.0000
SPC            2    8961  123456  0.0000
SPC            2    8962  123456  0.0000
SPC            2    8963  123456  0.0000
SPC            2    8964  123456  0.0000
SPC            2    8965  123456  0.0000
SPC            2    8966  123456  0.0000
SPC            2    8967  123456  0.0000
SPC            2    8968  123456  0.0000
SPC            2    8969  123456  0.0000
SPC            2    8970  123456  0.0000
SPC            2    8971  123456  0.0000
SPC            2    8972  123456  0.0000
SPC            2    8973  123456  0.0000
SPC            2    8974  123456  0.0000
SPC            2    8975  123456  0.0000
SPC            2    8976  123456  0.0000
SPC            2    8977  123456  0.0000
SPC            2    8978  123456  0.0000
SPC            2    8979  123456  0.0000
SPC            2    8980  123456  0.0000
SPC            2    8981  123456  0.0000
SPC            2    8982  123456  0.0000
SPC            2    8983  123456  0.0000
SPC            2    8984  123456  0.0000
SPC            2    8985  123456  0.0000
SPC            2    8986  123456  0.0000
SPC            2    8987  123456  0.0000
SPC            2    8988  123456  0.0000
SPC            2    8989  123456  0.0000
SPC            2    8990  123456  0.0000
SPC            2    8991  123456  0.0000
SPC            2    8992  123456  0.0000
SPC            2    8993  123456  0.0000
SPC            2    8994  123456  0.0000
SPC            2    8995  123456  0.0000
SPC            2    8996  123456  0.0000
SPC            2    8997  123456  0.0000
SPC            2    8998  123456  0.0000
SPC            2    8999  123456  0.0000
SPC            2    9000  123456  0.0000
SPC            2    9001  123456  0.0000
SPC            2    9002  123456  0.0000
SPC            2    9003  123456  0.0000
SPC            2    9004  123456  0.0000
SPC            2    9005  123456  0.0000
SPC            2    9006  123456  0.0000
SPC            2    9007  123456  0.0000
SPC            2    9008  123456  0.0000
SPC            2    9009  123456  0.0000
SPC            2    9010  123456  0.0000
SPC            2    9011  123456  0.0000
SPC            2    9012  123456  0.0000
SPC            2    9013  123456  0.0000
SPC            2    9014  123456  0.0000
SPC            2    9015  123456  0.0000
SPC            2    9016  123456  0.0000
SPC            2    9017  123456  0.0000
SPC            2    9018  123456  0.0000
SPC            2    9019  123456  0.0000
SPC            2    9020  123456  0.0000
SPC            2    9021  123456  0.0000
SPC            2    9022  123456  0.0000
SPC            2    9023  123456  0.0000
SPC            2    9024  123456  0.0000
SPC            2    9025  123456  0.0000
SPC            2    9026  123456  0.0000
SPC            2    9027  123456  0.0000
SPC            2    9028  123456  0.0000
SPC            2    9029  123456  0.0000
SPC            2    9030  123456  0.0000
SPC            2    9031  123456  0.0000
SPC            2    9032  123456  0.0000
SPC            2    9033  123456  0.0000
SPC            2    9034  123456  0.0000
SPC            2    9035  123456  0.0000
SPC            2    9036  123456  0.0000
SPC            2    9037  123456  0.0000
SPC            2    9038  123456  0.0000
SPC            2    9039  123456  0.0000
SPC            2    9040  123456  0.0000
SPC            2    9041  123456  0.0000
SPC            2    9042  123456  0.0000
SPC            2    9043  123456  0.0000
SPC            2    9044  123456  0.0000
SPC            2    9045  123456  0.0000
SPC            2    9046  123456  0.0000
SPC            2    9047  123456  0.0000
SPC            2    9048  123456  0.0000
SPC            2    9049  123456  0.0000
SPC            2    9050  123456  0.0000
SPC            2    9051  123456  0.0000
SPC            2    9052  123456  0.0000
SPC            2    9053  123456  0.0000
SPC            2    9054  123456  0.0000
SPC            2    9055  123456  0.0000
SPC            2    9056  123456  0.0000
SPC            2    9057  123456  0.0000
SPC            2    9058  123456  0.0000
SPC            2    9059  123456  0.0000
SPC            2    9060  123456  0.0000
SPC            2    9061  123456  0.0000
SPC            2    9062  123456  0.0000
SPC            2    9063  123456  0.0000
SPC            2    9064  123456  0.0000
SPC            2    9065  123456  0.0000
SPC            2    9066  123456  0.0000
SPC            2    9067  123456  0.0000
SPC            2    9068  123456  0.0000
SPC            2    9069  123456  0.0000
SPC            2    9070  123456  0.0000
SPC            2    9071  123456  0.0000
SPC            2    9072  123456  0.0000
SPC            2    9073  123456  0.0000
SPC            2    9074  123456  0.0000
SPC            2    9075  123456  0.0000
SPC            2    9076  123456  0.0000
SPC            2    9077  123456  0.0000
SPC            2    9078  123456  0.0000
SPC            2    9079  123456  0.0000
SPC            2    9080  123456  0.0000
SPC            2    9081  123456  0.0000
SPC            2    9082  123456  0.0000
SPC            2    9083  123456  0.0000
SPC            2    9084  123456  0.0000
SPC            2    9085  123456  0.0000
SPC            2    9086  123456  0.0000
SPC            2    9087  123456  0.0000
SPC            2    9088  123456  0.0000
SPC            2    9089  123456  0.0000
SPC            2    9090  123456  0.0000
SPC            2    9091  123456  0.0000
SPC            2    9092  123456  0.0000
SPC            2    9093  123456  0.0000
SPC            2    9094  123456  0.0000
SPC            2    9095  123456  0.0000
SPC            2    9096  123456  0.0000
SPC            2    9097  123456  0.0000
SPC            2    9098  123456  0.0000
SPC            2    9099  123456  0.0000
SPC            2    9100  123456  0.0000
SPC            2    9101  123456  0.0000
SPC            2    9102  123456  0.0000
SPC            2    9103  123456  0.0000
SPC            2    9104  123456  0.0000
SPC            2    9105  123456  0.0000
SPC            2    9106  123456  0.0000
SPC            2    9107  123456  0.0000
SPC            2    9108  123456  0.0000
SPC            2    9109  123456  0.0000
SPC            2    9110  123456  0.0000
SPC            2    9111  123456  0.0000
SPC            2    9112  123456  0.0000
SPC            2    9113  123456  0.0000
SPC            2    9114  123456  0.0000
SPC            2    9115  123456  0.0000
SPC            2    9116  123456  0.0000
SPC            2    9117  123456  0.0000
SPC            2    9118  123456  0.0000
SPC            2    9119  123456  0.0000
SPC            2    9120  123456  0.0000
SPC            2    9121  123456  0.0000
SPC            2    9122  123456  0.0000
SPC            2    9123  123456  0.0000
SPC            2    9124  123456  0.0000
SPC            2    9125  123456  0.0000
SPC            2    9126  123456  0.0000
SPC            2    9127  123456  0.0000
SPC            2    9128  123456  0.0000
SPC            2    9129  123456  0.0000
SPC            2    9130  123456  0.0000
SPC            2    9131  123456  0.0000
SPC            2    9132  123456  0.0000
SPC            2    9133  123456  0.0000
SPC            2    9134  123456  0.0000
SPC            2    9135  123456  0.0000
SPC            2    9136  123456  0.0000
SPC            2    9137  123456  0.0000
SPC            2    9138  123456  0.0000
SPC            2    9139  123456  0.0000
SPC            2    9140  123456  0.0000
SPC            2    9141  123456  0.0000
SPC            2    9142  123456  0.0000
SPC            2    9143  123456  0.0000
SPC            2    9144  123456  0.0000
SPC            2    9145  123456  0.0000
SPC            2    9146  123456  0.0000
SPC            2    9147  123456  0.0000
SPC            2    9148  123456  0.0000
SPC            2    9149  123456  0.0000
SPC            2    9150  123456  0.0000
SPC            2    9151  123456  0.0000
SPC            2    9152  123456  0.0000
SPC            2    9153  123456  0.0000
SPC            2    9154  123456  0.0000
SPC            2    9155  123456  0.0000
SPC            2    9156  123456  0.0000
SPC            2    9157  123456  0.0000
SPC            2    9158  123456  0.0000
SPC            2    9159  123456  0.0000
SPC            2    9160  123456  0.0000
SPC            2    9161  123456  0.0000
SPC            2    9162  123456  0.0000
SPC            2    9163  123456  0.0000
SPC            2    9164  123456  0.0000
SPC            2    9165  123456  0.0000
SPC            2    9166  123456  0.0000
SPC            2    9167  123456  0.0000
SPC            2    9168  123456  0.0000
SPC            2    9169  123456  0.0000
SPC            2    9170  123456  0.0000
SPC            2    9171  123456  0.0000
SPC            2    9172  123456  0.0000
SPC            2    9173  123456  0.0000
SPC            2    9174  123456  0.0000
SPC            2    9175  123456  0.0000
SPC            2    9176  123456  0.0000
SPC            2    9177  123456  0.0000
SPC            2    9178  123456  0.0000
SPC            2    9179  123456  0.0000
SPC            2    9180  123456  0.0000
SPC            2    9181  123456  0.0000
SPC            2    9182  123456  0.0000
SPC            2    9183  123456  0.0000
SPC            2    9184  123456  0.0000
SPC            2    9185  123456  0.0000
SPC            2    9186  123456  0.0000
SPC            2    9187  123456  0.0000
SPC            2    9188  123456  0.0000
SPC            2    9189  123456  0.0000
SPC            2    9190  123456  0.0000
SPC            2    9191  123456  0.0000
SPC            2    9192  123456  0.0000
SPC            2    9193  123456  0.0000
SPC            2    9194  123456  0.0000
SPC            2    9195  123456  0.0000
SPC            2    9196  123456  0.0000
SPC            2    9197  123456  0.0000
SPC            2    9198  123456  0.0000
SPC            2    9199  123456  0.0000
SPC            2    9200  123456  0.0000
SPC            2    9201  123456  0.0000
SPC            2    9202  123456  0.0000
SPC            2    9203  123456  0.0000
SPC            2    9204  123456  0.0000
SPC            2    9205  123456  0.0000
SPC            2    9206  123456  0.0000
SPC            2    9207  123456  0.0000
SPC            2    9208  123456  0.0000
SPC            2    9209  123456  0.0000
SPC            2    9210  123456  0.0000
SPC            2    9211  123456  0.0000
SPC            2    9212  123456  0.0000
SPC            2    9213  123456  0.0000
SPC            2    9214  123456  0.0000
SPC            2    9215  123456  0.0000
SPC            2    9216  123456  0.0000
SPC            2    9217  123456  0.0000
SPC            2    9218  123456  0.0000
SPC            2    9219  123456  0.0000
SPC            2    9220  123456  0.0000
SPC            2    9221  123456  0.0000
SPC            2    9222  123456  0.0000
SPC            2    9223  123456  0.0000
SPC            2    9224  123456  0.0000
SPC            2    9225  123456  0.0000
SPC            2    9226  123456  0.0000
SPC            2    9227  123456  0.0000
SPC            2    9228  123456  0.0000
SPC            2    9229  123456  0.0000
SPC            2    9230  123456  0.0000
SPC            2    9231  123456  0.0000
SPC            2    9232  123456  0.0000
SPC            2    9233  123456  0.0000
SPC            2    9234  123456  0.0000
SPC            2    9235  123456  0.0000
SPC            2    9236  123456  0.0000
SPC            2    9237  123456  0.0000
SPC            2    9238  123456  0.0000
SPC            2    9239  123456  0.0000
SPC            2    9240  123456  0.0000
SPC            2    9241  123456  0.0000
SPC            2    9242  123456  0.0000
SPC            2    9243  123456  0.0000
SPC            2    9244  123456  0.0000
SPC            2    9245  123456  0.0000
SPC            2    9246  123456  0.0000
SPC            2    9247  123456  0.0000
SPC            2    9248  123456  0.0000
SPC            2    9249  123456  0.0000
SPC            2    9250  123456  0.0000
SPC            2    9251  123456  0.0000
SPC            2    9252  123456  0.0000
SPC            2    9253  123456  0.0000
SPC            2    9254  123456  0.0000
SPC            2    9255  123456  0.0000
SPC            2    9256  123456  0.0000
SPC            2    9257  123456  0.0000
SPC            2    9258  123456  0.0000
SPC            2    9259  123456  0.0000
SPC            2    9260  123456  0.0000
SPC            2    9261  123456  0.0000
SPC            2    9262  123456  0.0000
SPC            2    9263  123456  0.0000
SPC            2    9264  123456  0.0000
SPC            2    9265  123456  0.0000
SPC            2    9266  123456  0.0000
SPC            2    9267  123456  0.0000
SPC            2    9268  123456  0.0000
SPC            2    9269  123456  0.0000
SPC            2    9270  123456  0.0000
SPC            2    9271  123456  0.0000
SPC            2    9272  123456  0.0000
SPC            2    9273  123456  0.0000
SPC            2    9274  123456  0.0000
SPC            2    9275  123456  0.0000
SPC            2    9276  123456  0.0000
SPC            2    9277  123456  0.0000
SPC            2    9278  123456  0.0000
SPC            2    9279  123456  0.0000
SPC            2    9280  123456  0.0000
SPC            2    9281  123456  0.0000
SPC            2    9282  123456  0.0000
SPC            2    9283  123456  0.0000
SPC            2    9284  123456  0.0000
SPC            2    9285  123456  0.0000
SPC            2    9286  123456  0.0000
SPC            2    9287  123456  0.0000
SPC            2    9288  123456  0.0000
SPC            2    9289  123456  0.0000
SPC            2    9290  123456  0.0000
SPC            2    9291  123456  0.0000
SPC            2    9292  123456  0.0000
SPC            2    9293  123456  0.0000
SPC            2    9294  123456  0.0000
SPC            2    9295  123456  0.0000
SPC            2    9296  123456  0.0000
SPC            2    9297  123456  0.0000
SPC            2    9298  123456  0.0000
SPC            2    9299  123456  0.0000
SPC            2    9300  123456  0.0000
SPC            2    9301  123456  0.0000
SPC            2    9302  123456  0.0000
SPC            2    9303  123456  0.0000
SPC            2    9304  123456  0.0000
SPC            2    9305  123456  0.0000
SPC            2    9306  123456  0.0000
SPC            2    9307  123456  0.0000
SPC            2    9308  123456  0.0000
SPC            2    9309  123456  0.0000
SPC            2    9310  123456  0.0000
SPC            2    9311  123456  0.0000
SPC            2    9312  123456  0.0000
SPC            2    9313  123456  0.0000
SPC            2    9314  123456  0.0000
SPC            2    9315  123456  0.0000
SPC            2    9316  123456  0.0000
SPC            2    9317  123456  0.0000
SPC            2    9318  123456  0.0000
SPC            2    9319  123456  0.0000
SPC            2    9320  123456  0.0000
SPC            2    9321  123456  0.0000
SPC            2    9322  123456  0.0000
SPC            2    9323  123456  0.0000
SPC            2    9324  123456  0.0000
SPC            2    9325  123456  0.0000
SPC            2    9326  123456  0.0000
SPC            2    9327  123456  0.0000
SPC            2    9328  123456  0.0000
SPC            2    9329  123456  0.0000
SPC            2    9330  123456  0.0000
SPC            2    9331  123456  0.0000
SPC            2    9332  123456  0.0000
SPC            2    9333  123456  0.0000
SPC            2    9334  123456  0.0000
SPC            2    9335  123456  0.0000
SPC            2    9336  123456  0.0000
SPC            2    9337  123456  0.0000
SPC            2    9338  123456  0.0000
SPC            2    9339  123456  0.0000
SPC            2    9340  123456  0.0000
SPC            2    9341  123456  0.0000
SPC            2    9342  123456  0.0000
SPC            2    9343  123456  0.0000
SPC            2    9344  123456  0.0000
SPC            2    9345  123456  0.0000
SPC            2    9346  123456  0.0000
SPC            2    9347  123456  0.0000
SPC            2    9348  123456  0.0000
SPC            2    9349  123456  0.0000
SPC            2    9350  123456  0.0000
SPC            2    9351  123456  0.0000
SPC            2    9352  123456  0.0000
SPC            2    9353  123456  0.0000
SPC            2    9354  123456  0.0000
SPC            2    9355  123456  0.0000
SPC            2    9356  123456  0.0000
SPC            2    9357  123456  0.0000
SPC            2    9358  123456  0.0000
SPC            2    9359  123456  0.0000
SPC            2    9360  123456  0.0000
SPC            2    9361  123456  0.0000
SPC            2    9362  123456  0.0000
SPC            2    9363  123456  0.0000
SPC            2    9364  123456  0.0000
SPC            2    9365  123456  0.0000
SPC            2    9366  123456  0.0000
SPC            2    9367  123456  0.0000
SPC            2    9368  123456  0.0000
SPC            2    9369  123456  0.0000
SPC            2    9370  123456  0.0000
SPC            2    9371  123456  0.0000
SPC            2    9372  123456  0.0000
SPC            2    9373  123456  0.0000
SPC            2    9374  123456  0.0000
SPC            2    9375  123456  0.0000
SPC            2    9376  123456  0.0000
SPC            2    9377  123456  0.0000
SPC            2    9378  123456  0.0000
SPC            2    9379  123456  0.0000
SPC            2    9380  123456  0.0000
SPC            2    9381  123456  0.0000
SPC            2    9382  123456  0.0000
SPC            2    9383  123456  0.0000
SPC            2    9384  123456  0.0000
SPC            2    9385  123456  0.0000
SPC            2    9386  123456  0.0000
SPC            2    9387  123456  0.0000
SPC            2    9388  123456  0.0000
SPC            2    9389  123456  0.0000
SPC            2    9390  123456  0.0000
SPC            2    9391  123456  0.0000
SPC            2    9392  123456  0.0000
SPC            2    9393  123456  0.0000
SPC            2    9394  123456  0.0000
SPC            2    9395  123456  0.0000
SPC            2    9396  123456  0.0000
SPC            2    9397  123456  0.0000
SPC            2    9398  123456  0.0000
SPC            2    9399  123456  0.0000
SPC            2    9400  123456  0.0000
SPC            2    9401  123456  0.0000
SPC            2    9402  123456  0.0000
SPC            2    9403  123456  0.0000
SPC            2    9404  123456  0.0000
SPC            2    9405  123456  0.0000
SPC            2    9406  123456  0.0000
SPC            2    9407  123456  0.0000
SPC            2    9408  123456  0.0000
SPC            2    9409  123456  0.0000
SPC            2    9410  123456  0.0000
SPC            2    9411  123456  0.0000
SPC            2    9412  123456  0.0000
SPC            2    9413  123456  0.0000
SPC            2    9414  123456  0.0000
SPC            2    9415  123456  0.0000
SPC            2    9416  123456  0.0000
SPC            2    9417  123456  0.0000
SPC            2    9418  123456  0.0000
SPC            2    9419  123456  0.0000
SPC            2    9420  123456  0.0000
SPC            2    9421  123456  0.0000
SPC            2    9422  123456  0.0000
SPC            2    9423  123456  0.0000
SPC            2    9424  123456  0.0000
SPC            2    9425  123456  0.0000
SPC            2    9426  123456  0.0000
SPC            2    9427  123456  0.0000
SPC            2    9428  123456  0.0000
SPC            2    9429  123456  0.0000
SPC            2    9430  123456  0.0000
SPC            2    9431  123456  0.0000
SPC            2    9432  123456  0.0000
SPC            2    9433  123456  0.0000
SPC            2    9434  123456  0.0000
SPC            2    9435  123456  0.0000
SPC            2    9436  123456  0.0000
SPC            2    9437  123456  0.0000
SPC            2    9438  123456  0.0000
SPC            2    9439  123456  0.0000
SPC            2    9440  123456  0.0000
SPC            2    9441  123456  0.0000
SPC            2    9442  123456  0.0000
SPC            2    9443  123456  0.0000
SPC            2    9444  123456  0.0000
SPC            2    9445  123456  0.0000
SPC            2    9446  123456  0.0000
SPC            2    9447  123456  0.0000
SPC            2    9448  123456  0.0000
SPC            2    9449  123456  0.0000
SPC            2    9450  123456  0.0000
SPC            2    9451  123456  0.0000
SPC            2    9452  123456  0.0000
SPC            2    9453  123456  0.0000
SPC            2    9454  123456  0.0000
SPC            2    9455  123456  0.0000
SPC            2    9456  123456  0.0000
SPC            2    9457  123456  0.0000
SPC            2    9458  123456  0.0000
SPC            2    9459  123456  0.0000
SPC            2    9460  123456  0.0000
SPC            2    9461  123456  0.0000
SPC            2    9462  123456  0.0000
SPC            2    9463  123456  0.0000
SPC            2    9464  123456  0.0000
SPC            2    9465  123456  0.0000
SPC            2    9466  123456  0.0000
SPC            2    9467  123456  0.0000
SPC            2    9468  123456  0.0000
SPC            2    9469  123456  0.0000
SPC            2    9470  123456  0.0000
SPC            2    9471  123456  0.0000
SPC            2    9472  123456  0.0000
SPC            2    9473  123456  0.0000
SPC            2    9474  123456  0.0000
SPC            2    9475  123456  0.0000
SPC            2    9476  123456  0.0000
SPC            2    9477  123456  0.0000
SPC            2    9478  123456  0.0000
SPC            2    9479  123456  0.0000
SPC            2    9480  123456  0.0000
SPC            2    9481  123456  0.0000
SPC            2    9482  123456  0.0000
SPC            2    9483  123456  0.0000
SPC            2    9484  123456  0.0000
SPC            2    9485  123456  0.0000
SPC            2    9486  123456  0.0000
SPC            2    9487  123456  0.0000
SPC            2    9488  123456  0.0000
SPC            2    9489  123456  0.0000
SPC            2    9490  123456  0.0000
SPC            2    9491  123456  0.0000
SPC            2    9492  123456  0.0000
SPC            2    9493  123456  0.0000
SPC            2    9494  123456  0.0000
SPC            2    9495  123456  0.0000
SPC            2    9496  123456  0.0000
SPC            2    9497  123456  0.0000
SPC            2    9498  123456  0.0000
SPC            2    9499  123456  0.0000
SPC            2    9500  123456  0.0000
SPC            2    9501  123456  0.0000
SPC            2    9502  123456  0.0000
SPC            2    9503  123456  0.0000
SPC            2    9504  123456  0.0000
SPC            2    9505  123456  0.0000
SPC            2    9506  123456  0.0000
SPC            2    9507  123456  0.0000
SPC            2    9508  123456  0.0000
SPC            2    9509  123456  0.0000
SPC            2    9510  123456  0.0000
SPC            2    9511  123456  0.0000
SPC            2    9512  123456  0.0000
SPC            2    9513  123456  0.0000
SPC            2    9514  123456  0.0000
SPC            2    9515  123456  0.0000
SPC            2    9516  123456  0.0000
SPC            2    9517  123456  0.0000
SPC            2    9518  123456  0.0000
SPC            2    9519  123456  0.0000
SPC            2    9520  123456  0.0000
SPC            2    9521  123456  0.0000
SPC            2    9522  123456  0.0000
SPC            2    9523  123456  0.0000
SPC            2    9524  123456  0.0000
SPC            2    9525  123456  0.0000
SPC            2    9526  123456  0.0000
SPC            2    9527  123456  0.0000
SPC            2    9528  123456  0.0000
SPC            2    9529  123456  0.0000
SPC            2    9530  123456  0.0000
SPC            2    9531  123456  0.0000
SPC            2    9532  123456  0.0000
SPC            2    9533  123456  0.0000
SPC            2    9534  123456  0.0000
SPC            2    9535  123456  0.0000
SPC            2    9536  123456  0.0000
SPC            2    9537  123456  0.0000
SPC            2    9538  123456  0.0000
SPC            2    9539  123456  0.0000
SPC            2    9540  123456  0.0000
SPC            2    9541  123456  0.0000
SPC            2    9542  123456  0.0000
SPC            2    9543  123456  0.0000
SPC            2    9544  123456  0.0000
SPC            2    9545  123456  0.0000
SPC            2    9546  123456  0.0000
SPC            2    9547  123456  0.0000
SPC            2    9548  123456  0.0000
SPC            2    9549  123456  0.0000
SPC            2    9550  123456  0.0000
SPC            2    9551  123456  0.0000
SPC            2    9552  123456  0.0000
SPC            2    9553  123456  0.0000
SPC            2    9554  123456  0.0000
SPC            2    9555  123456  0.0000
SPC            2    9556  123456  0.0000
SPC            2    9557  123456  0.0000
SPC            2    9558  123456  0.0000
SPC            2    9559  123456  0.0000
SPC            2    9560  123456  0.0000
SPC            2    9561  123456  0.0000
SPC            2    9562  123456  0.0000
SPC            2    9563  123456  0.0000
SPC            2    9564  123456  0.0000
SPC            2    9565  123456  0.0000
SPC            2    9566  123456  0.0000
SPC            2    9567  123456  0.0000
SPC            2    9568  123456  0.0000
SPC            2    9569  123456  0.0000
SPC            2    9570  123456  0.0000
SPC            2    9571  123456  0.0000
SPC            2    9572  123456  0.0000
SPC            2    9573  123456  0.0000
SPC            2    9574  123456  0.0000
SPC            2    9575  123456  0.0000
SPC            2    9576  123456  0.0000
SPC            2    9577  123456  0.0000
SPC            2    9578  123456  0.0000
SPC            2    9579  123456  0.0000
SPC            2    9580  123456  0.0000
SPC            2    9581  123456  0.0000
SPC            2    9582  123456  0.0000
SPC            2    9583  123456  0.0000
SPC            2    9584  123456  0.0000
SPC            2    9585  123456  0.0000
SPC            2    9586  123456  0.0000
SPC            2    9587  123456  0.0000
SPC            2    9588  123456  0.0000
SPC            2    9589  123456  0.0000
SPC            2    9590  123456  0.0000
SPC            2    9591  123456  0.0000
SPC            2    9592  123456  0.0000
SPC            2    9593  123456  0.0000
SPC            2    9594  123456  0.0000
SPC            2    9595  123456  0.0000
SPC            2    9596  123456  0.0000
SPC            2    9597  123456  0.0000
SPC            2    9598  123456  0.0000
SPC            2    9599  123456  0.0000
SPC            2    9600  123456  0.0000
SPC            2    9601  123456  0.0000
SPC            2    9602  123456  0.0000
SPC            2    9603  123456  0.0000
SPC            2    9604  123456  0.0000
SPC            2    9605  123456  0.0000
SPC            2    9606  123456  0.0000
SPC            2    9607  123456  0.0000
SPC            2    9608  123456  0.0000
SPC            2    9609  123456  0.0000
SPC            2    9610  123456  0.0000
SPC            2    9611  123456  0.0000
SPC            2    9612  123456  0.0000
SPC            2    9613  123456  0.0000
SPC            2    9614  123456  0.0000
SPC            2    9615  123456  0.0000
SPC            2    9616  123456  0.0000
SPC            2    9617  123456  0.0000
SPC            2    9618  123456  0.0000
SPC            2    9619  123456  0.0000
SPC            2    9620  123456  0.0000
SPC            2    9621  123456  0.0000
SPC            2    9622  123456  0.0000
SPC            2    9623  123456  0.0000
SPC            2    9624  123456  0.0000
SPC            2    9625  123456  0.0000
SPC            2    9626  123456  0.0000
SPC            2    9627  123456  0.0000
SPC            2    9628  123456  0.0000
SPC            2    9629  123456  0.0000
SPC            2    9630  123456  0.0000
SPC            2    9631  123456  0.0000
SPC            2    9632  123456  0.0000
SPC            2    9633  123456  0.0000
SPC            2    9634  123456  0.0000
SPC            2    9635  123456  0.0000
SPC            2    9636  123456  0.0000
SPC            2    9637  123456  0.0000
SPC            2    9638  123456  0.0000
SPC            2    9639  123456  0.0000
SPC            2    9640  123456  0.0000
SPC            2    9641  123456  0.0000
SPC            2    9642  123456  0.0000
SPC            2    9643  123456  0.0000
SPC            2    9644  123456  0.0000
SPC            2    9645  123456  0.0000
SPC            2    9646  123456  0.0000
SPC            2    9647  123456  0.0000
SPC            2    9648  123456  0.0000
SPC            2    9649  123456  0.0000
SPC            2    9650  123456  0.0000
SPC            2    9651  123456  0.0000
SPC            2    9652  123456  0.0000
SPC            2    9653  123456  0.0000
SPC            2    9654  123456  0.0000
SPC            2    9655  123456  0.0000
SPC            2    9656  123456  0.0000
SPC            2    9657  123456  0.0000
SPC            2    9658  123456  0.0000
SPC            2    9659  123456  0.0000
SPC            2    9660  123456  0.0000
SPC            2    9661  123456  0.0000
SPC            2    9662  123456  0.0000
SPC            2    9663  123456  0.0000
SPC            2    9664  123456  0.0000
SPC            2    9665  123456  0.0000
SPC            2    9666  123456  0.0000
SPC            2    9667  123456  0.0000
SPC            2    9668  123456  0.0000
SPC            2    9669  123456  0.0000
SPC            2    9670  123456  0.0000
SPC            2    9671  123456  0.0000
SPC            2    9672  123456  0.0000
SPC            2    9673  123456  0.0000
SPC            2    9674  123456  0.0000
SPC            2    9675  123456  0.0000
SPC            2    9676  123456  0.0000
SPC            2    9677  123456  0.0000
SPC            2    9678  123456  0.0000
SPC            2    9679  123456  0.0000
SPC            2    9680  123456  0.0000
SPC            2    9681  123456  0.0000
SPC            2    9682  123456  0.0000
SPC            2    9683  123456  0.0000
SPC            2    9684  123456  0.0000
SPC            2    9685  123456  0.0000
SPC            2    9686  123456  0.0000
SPC            2    9687  123456  0.0000
SPC            2    9688  123456  0.0000
SPC            2    9689  123456  0.0000
SPC            2    9690  123456  0.0000
SPC            2    9691  123456  0.0000
SPC            2    9692  123456  0.0000
SPC            2    9693  123456  0.0000
SPC            2    9694  123456  0.0000
SPC            2    9695  123456  0.0000
SPC            2    9696  123456  0.0000
SPC            2    9697  123456  0.0000
SPC            2    9698  123456  0.0000
SPC            2    9699  123456  0.0000
SPC            2    9700  123456  0.0000
SPC            2    9701  123456  0.0000
SPC            2    9702  123456  0.0000
SPC            2    9703  123456  0.0000
SPC            2    9704  123456  0.0000
SPC            2    9705  123456  0.0000
SPC            2    9706  123456  0.0000
SPC            2    9707  123456  0.0000
SPC            2    9708  123456  0.0000
SPC            2    9709  123456  0.0000
SPC            2    9710  123456  0.0000
SPC            2    9711  123456  0.0000
SPC            2    9712  123456  0.0000
SPC            2    9713  123456  0.0000
SPC            2    9714  123456  0.0000
SPC            2    9715  123456  0.0000
SPC            2    9716  123456  0.0000
SPC            2    9717  123456  0.0000
SPC            2    9718  123456  0.0000
SPC            2    9719  123456  0.0000
SPC            2    9720  123456  0.0000
SPC            2    9721  123456  0.0000
SPC            2    9722  123456  0.0000
SPC            2    9723  123456  0.0000
SPC            2    9724  123456  0.0000
SPC            2    9725  123456  0.0000
SPC            2    9726  123456  0.0000
SPC            2    9727  123456  0.0000
SPC            2    9728  123456  0.0000
SPC            2    9729  123456  0.0000
SPC            2    9730  123456  0.0000
SPC            2    9731  123456  0.0000
SPC            2    9732  123456  0.0000
SPC            2    9733  123456  0.0000
SPC            2    9734  123456  0.0000
SPC            2    9735  123456  0.0000
SPC            2    9736  123456  0.0000
SPC            2    9737  123456  0.0000
SPC            2    9738  123456  0.0000
SPC            2    9739  123456  0.0000
SPC            2    9740  123456  0.0000
SPC            2    9741  123456  0.0000
SPC            2    9742  123456  0.0000
SPC            2    9743  123456  0.0000
SPC            2    9744  123456  0.0000
SPC            2    9745  123456  0.0000
SPC            2    9746  123456  0.0000
SPC            2    9747  123456  0.0000
SPC            2    9748  123456  0.0000
SPC            2    9749  123456  0.0000
SPC            2    9750  123456  0.0000
SPC            2    9751  123456  0.0000
SPC            2    9752  123456  0.0000
SPC            2    9753  123456  0.0000
SPC            2    9754  123456  0.0000
SPC            2    9755  123456  0.0000
SPC            2    9756  123456  0.0000
SPC            2    9757  123456  0.0000
SPC            2    9758  123456  0.0000
SPC            2    9759  123456  0.0000
SPC            2    9760  123456  0.0000
SPC            2    9761  123456  0.0000
SPC            2    9762  123456  0.0000
SPC            2    9763  123456  0.0000
SPC            2    9764  123456  0.0000
SPC            2    9765  123456  0.0000
SPC            2    9766  123456  0.0000
SPC            2    9767  123456  0.0000
SPC            2    9768  123456  0.0000
SPC            2    9769  123456  0.0000
SPC            2    9770  123456  0.0000
SPC            2    9771  123456  0.0000
SPC            2    9772  123456  0.0000
SPC            2    9773  123456  0.0000
SPC            2    9774  123456  0.0000
SPC            2    9775  123456  0.0000
SPC            2    9776  123456  0.0000
SPC            2    9777  123456  0.0000
SPC            2    9778  123456  0.0000
SPC            2    9779  123456  0.0000
SPC            2    9780  123456  0.0000
SPC            2    9781  123456  0.0000
SPC            2    9782  123456  0.0000
SPC            2    9783  123456  0.0000
SPC            2    9784  123456  0.0000
SPC            2    9785  123456  0.0000
SPC            2    9786  123456  0.0000
SPC            2    9787  123456  0.0000
SPC            2    9788  123456  0.0000
SPC            2    9789  123456  0.0000
SPC            2    9790  123456  0.0000
SPC            2    9791  123456  0.0000
SPC            2    9792  123456  0.0000
SPC            2    9793  123456  0.0000
SPC            2    9794  123456  0.0000
SPC            2    9795  123456  0.0000
SPC            2    9796  123456  0.0000
SPC            2    9797  123456  0.0000
SPC            2    9798  123456  0.0000
SPC            2    9799  123456  0.0000
SPC            2    9800  123456  0.0000
SPC            2    9801  123456  0.0000
SPC            2    9802  123456  0.0000
SPC            2    9803  123456  0.0000
SPC            2    9804  123456  0.0000
SPC            2    9805  123456  0.0000
SPC            2    9806  123456  0.0000
SPC            2    9807  123456  0.0000
SPC            2    9808  123456  0.0000
SPC            2    9809  123456  0.0000
SPC            2    9810  123456  0.0000
SPC            2    9811  123456  0.0000
SPC            2    9812  123456  0.0000
SPC            2    9813  123456  0.0000
SPC            2    9814  123456  0.0000
SPC            2    9815  123456  0.0000
SPC            2    9816  123456  0.0000
SPC            2    9817  123456  0.0000
SPC            2    9818  123456  0.0000
SPC            2    9819  123456  0.0000
SPC            2    9820  123456  0.0000
SPC            2    9821  123456  0.0000
SPC            2    9822  123456  0.0000
SPC            2    9823  123456  0.0000
SPC            2    9824  123456  0.0000
SPC            2    9825  123456  0.0000
SPC            2    9826  123456  0.0000
SPC            2    9827  123456  0.0000
SPC            2    9828  123456  0.0000
SPC            2    9829  123456  0.0000
SPC            2    9830  123456  0.0000
SPC            2    9831  123456  0.0000
SPC            2    9832  123456  0.0000
SPC            2    9833  123456  0.0000
SPC            2    9834  123456  0.0000
SPC            2    9835  123456  0.0000
SPC            2    9836  123456  0.0000
SPC            2    9837  123456  0.0000
SPC            2    9838  123456  0.0000
SPC            2    9839  123456  0.0000
SPC            2    9840  123456  0.0000
SPC            2    9841  123456  0.0000
SPC            2    9842  123456  0.0000
SPC            2    9843  123456  0.0000
SPC            2    9844  123456  0.0000
SPC            2    9845  123456  0.0000
SPC            2    9846  123456  0.0000
SPC            2    9847  123456  0.0000
SPC            2    9848  123456  0.0000
SPC            2    9849  123456  0.0000
SPC            2    9850  123456  0.0000
SPC            2    9851  123456  0.0000
SPC            2    9852  123456  0.0000
SPC            2    9853  123456  0.0000
SPC            2    9854  123456  0.0000
SPC            2    9855  123456  0.0000
SPC            2    9856  123456  0.0000
SPC            2    9857  123456  0.0000
SPC            2    9858  123456  0.0000
SPC            2    9859  123456  0.0000
SPC            2    9860  123456  0.0000
SPC            2    9861  123456  0.0000
SPC            2    9862  123456  0.0000
SPC            2    9863  123456  0.0000
SPC            2    9864  123456  0.0000
SPC            2    9865  123456  0.0000
SPC            2    9866  123456  0.0000
SPC            2    9867  123456  0.0000
SPC            2    9868  123456  0.0000
SPC            2    9869  123456  0.0000
SPC            2    9870  123456  0.0000
SPC            2    9871  123456  0.0000
SPC            2    9872  123456  0.0000
SPC            2    9873  123456  0.0000
SPC            2    9874  123456  0.0000
SPC            2    9875  123456  0.0000
SPC            2    9876  123456  0.0000
SPC            2    9877  123456  0.0000
SPC            2    9878  123456  0.0000
SPC            2    9879  123456  0.0000
SPC            2    9880  123456  0.0000
SPC            2    9881  123456  0.0000
SPC            2    9882  123456  0.0000
SPC            2    9883  123456  0.0000
SPC            2    9884  123456  0.0000
SPC            2    9885  123456  0.0000
SPC            2    9886  123456  0.0000
SPC            2    9887  123456  0.0000
SPC            2    9888  123456  0.0000
SPC            2    9889  123456  0.0000
SPC            2    9890  123456  0.0000
SPC            2    9891  123456  0.0000
SPC            2    9892  123456  0.0000
SPC            2    9893  123456  0.0000
SPC            2    9894  123456  0.0000
SPC            2    9895  123456  0.0000
SPC            2    9896  123456  0.0000
SPC            2    9897  123456  0.0000
SPC            2    9898  123456  0.0000
SPC            2    9899  123456  0.0000
SPC            2    9900  123456  0.0000
SPC            2    9901  123456  0.0000
SPC            2    9902  123456  0.0000
SPC            2    9903  123456  0.0000
SPC            2    9904  123456  0.0000
SPC            2    9905  123456  0.0000
SPC            2    9906  123456  0.0000
SPC            2    9907  123456  0.0000
SPC            2    9908  123456  0.0000
SPC            2    9909  123456  0.0000
SPC            2    9910  123456  0.0000
SPC            2    9911  123456  0.0000
SPC            2    9912  123456  0.0000
SPC            2    9913  123456  0.0000
SPC            2    9914  123456  0.0000
SPC            2    9915  123456  0.0000
SPC            2    9916  123456  0.0000
SPC            2    9917  123456  0.0000
SPC            2    9918  123456  0.0000
SPC            2    9919  123456  0.0000
SPC            2    9920  123456  0.0000
SPC            2    9921  123456  0.0000
SPC            2    9922  123456  0.0000
SPC            2    9923  123456  0.0000
SPC            2    9924  123456  0.0000
SPC            2    9925  123456  0.0000
SPC            2    9926  123456  0.0000
SPC            2    9927  123456  0.0000
SPC            2    9928  123456  0.0000
SPC            2    9929  123456  0.0000
SPC            2    9930  123456  0.0000
SPC            2    9931  123456  0.0000
SPC            2    9932  123456  0.0000
SPC            2    9933  123456  0.0000
SPC            2    9934  123456  0.0000
SPC            2    9935  123456  0.0000
SPC            2    9936  123456  0.0000
SPC            2    9937  123456  0.0000
SPC            2    9938  123456  0.0000
SPC            2    9939  123456  0.0000
SPC            2    9940  123456  0.0000
SPC            2    9941  123456  0.0000
SPC            2    9942  123456  0.0000
SPC            2    9943  123456  0.0000
SPC            2    9944  123456  0.0000
SPC            2    9945  123456  0.0000
SPC            2    9946  123456  0.0000
SPC            2    9947  123456  0.0000
SPC            2    9948  123456  0.0000
SPC            2    9949  123456  0.0000
SPC            2    9950  123456  0.0000
SPC            2    9951  123456  0.0000
SPC            2    9952  123456  0.0000
SPC            2    9953  123456  0.0000
SPC            2    9954  123456  0.0000
SPC            2    9955  123456  0.0000
SPC            2    9956  123456  0.0000
SPC            2    9957  123456  0.0000
SPC            2    9958  123456  0.0000
SPC            2    9959  123456  0.0000
SPC            2    9960  123456  0.0000
SPC            2    9961  123456  0.0000
SPC            2    9962  123456  0.0000
SPC            2    9963  123456  0.0000
SPC            2    9964  123456  0.0000
SPC            2    9965  123456  0.0000
SPC            2    9966  123456  0.0000
SPC            2    9967  123456  0.0000
SPC            2    9968  123456  0.0000
SPC            2    9969  123456  0.0000
SPC            2    9970  123456  0.0000
SPC            2    9971  123456  0.0000
SPC            2    9972  123456  0.0000
SPC            2    9973  123456  0.0000
SPC            2    9974  123456  0.0000
SPC            2    9975  123456  0.0000
SPC            2    9976  123456  0.0000
SPC            2    9977  123456  0.0000
SPC            2    9978  123456  0.0000
SPC            2    9979  123456  0.0000
SPC            2    9980  123456  0.0000
SPC            2    9981  123456  0.0000
SPC            2    9982  123456  0.0000
SPC            2    9983  123456  0.0000
SPC            2    9984  123456  0.0000
SPC            2    9985  123456  0.0000
SPC            2    9986  123456  0.0000
SPC            2    9987  123456  0.0000
SPC            2    9988  123456  0.0000
SPC            2    9989  123456  0.0000
SPC            2    9990  123456  0.0000
SPC            2    9991  123456  0.0000
SPC            2    9992  123456  0.0000
SPC            2    9993  123456  0.0000
SPC            2    9994  123456  0.0000
SPC            2    9995  123456  0.0000
SPC            2    9996  123456  0.0000
SPC            2    9997  123456  0.0000
SPC            2    9998  123456  0.0000
SPC            2    9999  123456  0.0000
SPC            2   10000  123456  0.0000
SPC            2   10001  123456  0.0000
SPC            2   10002  123456  0.0000
SPC            2   10003  123456  0.0000
SPC            2   10004  123456  0.0000
SPC            2   10005  123456  0.0000
SPC            2   10006  123456  0.0000
SPC            2   10007  123456  0.0000
SPC            2   10008  123456  0.0000
SPC            2   10009  123456  0.0000
SPC            2   10010  123456  0.0000
SPC            2   10011  123456  0.0000
SPC            2   10012  123456  0.0000
SPC            2   10013  123456  0.0000
SPC            2   10014  123456  0.0000
SPC            2   10015  123456  0.0000
SPC            2   10016  123456  0.0000
SPC            2   10017  123456  0.0000
SPC            2   10018  123456  0.0000
SPC            2   10019  123456  0.0000
SPC            2   10020  123456  0.0000
SPC            2   10021  123456  0.0000
SPC            2   10022  123456  0.0000
SPC            2   10023  123456  0.0000
SPC            2   10024  123456  0.0000
SPC            2   10025  123456  0.0000
SPC            2   10026  123456  0.0000
SPC            2   10027  123456  0.0000
SPC            2   10028  123456  0.0000
SPC            2   10029  123456  0.0000
SPC            2   10030  123456  0.0000
SPC            2   10031  123456  0.0000
SPC            2   10032  123456  0.0000
SPC            2   10033  123456  0.0000
SPC            2   10034  123456  0.0000
SPC            2   10099  123456  0.0000
SPC            2   10100  123456  0.0000
SPC            2   10101  123456  0.0000
SPC            2   10102  123456  0.0000
SPC            2   10103  123456  0.0000
SPC            2   10104  123456  0.0000
SPC            2   10105  123456  0.0000
SPC            2   10106  123456  0.0000
SPC            2   10107  123456  0.0000
SPC            2   10108  123456  0.0000
SPC            2   10109  123456  0.0000
SPC            2   10110  123456  0.0000
SPC            2   10111  123456  0.0000
SPC            2   10112  123456  0.0000
SPC            2   10113  123456  0.0000
SPC            2   10114  123456  0.0000
SPC            2   10115  123456  0.0000
SPC            2   10116  123456  0.0000
SPC            2   10117  123456  0.0000
SPC            2   10118  123456  0.0000
SPC            2   10119  123456  0.0000
SPC            2   10120  123456  0.0000
SPC            2   10121  123456  0.0000
SPC            2   10122  123456  0.0000
SPC            2   10123  123456  0.0000
SPC            2   10124  123456  0.0000
SPC            2   10125  123456  0.0000
SPC            2   10275  123456  0.0000
SPC            2   10276  123456  0.0000
SPC            2   10277  123456  0.0000
SPC            2   10278  123456  0.0000
SPC            2   10279  123456  0.0000
SPC            2   10280  123456  0.0000
SPC            2   10281  123456  0.0000
SPC            2   10282  123456  0.0000
SPC            2   10283  123456  0.0000
SPC            2   10284  123456  0.0000
SPC            2   10285  123456  0.0000
SPC            2   10286  123456  0.0000
SPC            2   10287  123456  0.0000
SPC            2   10288  123456  0.0000
SPC            2   10289  123456  0.0000
SPC            2   10290  123456  0.0000
SPC            2   10291  123456  0.0000
SPC            2   10292  123456  0.0000
SPC            2   10293  123456  0.0000
SPC            2   10294  123456  0.0000
SPC            2   10295  123456  0.0000
SPC            2   10296  123456  0.0000
SPC            2   10297  123456  0.0000
SPC            2   10298  123456  0.0000
SPC            2   10299  123456  0.0000
SPC            2   10300  123456  0.0000
SPC            2   10301  123456  0.0000
SPC            2   10302  123456  0.0000
SPC            2   10303  123456  0.0000
SPC            2   10304  123456  0.0000
SPC            2   10305  123456  0.0000
SPC            2   10306  123456  0.0000
SPC            2   10307  123456  0.0000
SPC            2   10308  123456  0.0000
SPC            2   10309  123456  0.0000
SPC            2   10310  123456  0.0000
SPC            2   10311  123456  0.0000
SPC            2   10312  123456  0.0000
SPC            2   10313  123456  0.0000
SPC            2   10314  123456  0.0000
SPC            2   10315  123456  0.0000
SPC            2   10316  123456  0.0000
SPC            2   10317  123456  0.0000
SPC            2   10318  123456  0.0000
SPC            2   10319  123456  0.0000
SPC            2   10320  123456  0.0000
SPC            2   10321  123456  0.0000
SPC            2   10322  123456  0.0000
SPC            2   10323  123456  0.0000
SPC            2   10324  123456  0.0000
SPC            2   10325  123456  0.0000
SPC            2   10326  123456  0.0000
SPC            2   10327  123456  0.0000
SPC            2   10328  123456  0.0000
SPC            2   10329  123456  0.0000
SPC            2   10330  123456  0.0000
SPC            2   10331  123456  0.0000
SPC            2   10332  123456  0.0000
SPC            2   10333  123456  0.0000
SPC            2   10334  123456  0.0000
SPC            2   10335  123456  0.0000
SPC            2   10336  123456  0.0000
SPC            2   10337  123456  0.0000
SPC            2   10338  123456  0.0000
SPC            2   10339  123456  0.0000
SPC            2   10340  123456  0.0000
SPC            2   10341  123456  0.0000
SPC            2   10342  123456  0.0000
SPC            2   10343  123456  0.0000
SPC            2   10344  123456  0.0000
SPC            2   10345  123456  0.0000
SPC            2   10346  123456  0.0000
SPC            2   10347  123456  0.0000
SPC            2   10348  123456  0.0000
SPC            2   10349  123456  0.0000
SPC            2   10350  123456  0.0000
SPC            2   10351  123456  0.0000
SPC            2   10352  123456  0.0000
SPC            2   10353  123456  0.0000
SPC            2   10354  123456  0.0000
SPC            2   10355  123456  0.0000
SPC            2   10356  123456  0.0000
SPC            2   10357  123456  0.0000
SPC            2   10358  123456  0.0000
SPC            2   10359  123456  0.0000
SPC            2   10360  123456  0.0000
SPC            2   10361  123456  0.0000
SPC            2   10362  123456  0.0000
SPC            2   10363  123456  0.0000
SPC            2   10364  123456  0.0000
SPC            2   10365  123456  0.0000
SPC            2   10366  123456  0.0000
SPC            2   10367  123456  0.0000
SPC            2   10368  123456  0.0000
SPC            2   10369  123456  0.0000
SPC            2   10370  123456  0.0000
SPC            2   10371  123456  0.0000
SPC            2   10372  123456  0.0000
SPC            2   10373  123456  0.0000
SPC            2   10374  123456  0.0000
SPC            2   10375  123456  0.0000
SPC            2   10376  123456  0.0000
SPC            2   10377  123456  0.0000
SPC            2   10378  123456  0.0000
SPC            2   10379  123456  0.0000
SPC            2   10380  123456  0.0000
SPC            2   10381  123456  0.0000
SPC            2   10382  123456  0.0000
SPC            2   10383  123456  0.0000
SPC            2   10384  123456  0.0000
SPC            2   10385  123456  0.0000
SPC            2   10386  123456  0.0000
SPC            2   10387  123456  0.0000
SPC            2   10388  123456  0.0000
SPC            2   10389  123456  0.0000
SPC            2   10390  123456  0.0000
SPC            2   10391  123456  0.0000
SPC            2   10392  123456  0.0000
SPC            2   10393  123456  0.0000
SPC            2   10394  123456  0.0000
SPC            2   10395  123456  0.0000
SPC            2   10396  123456  0.0000
SPC            2   10397  123456  0.0000
SPC            2   10398  123456  0.0000
SPC            2   10399  123456  0.0000
SPC            2   10400  123456  0.0000
SPC            2   10401  123456  0.0000
SPC            2   10402  123456  0.0000
SPC            2   10403  123456  0.0000
SPC            2   10404  123456  0.0000
SPC            2   10405  123456  0.0000
SPC            2   10406  123456  0.0000
SPC            2   10407  123456  0.0000
SPC            2   10408  123456  0.0000
SPC            2   10409  123456  0.0000
SPC            2   10410  123456  0.0000
SPC            2   10411  123456  0.0000
SPC            2   10412  123456  0.0000
SPC            2   10413  123456  0.0000
SPC            2   10414  123456  0.0000
SPC            2   10415  123456  0.0000
SPC            2   10416  123456  0.0000
SPC            2   10417  123456  0.0000
SPC            2   10418  123456  0.0000
SPC            2   10419  123456  0.0000
SPC            2   10420  123456  0.0000
SPC            2   10421  123456  0.0000
SPC            2   10422  123456  0.0000
SPC            2   10423  123456  0.0000
SPC            2   10573  123456  0.0000
SPC            2   10574  123456  0.0000
SPC            2   10575  123456  0.0000
SPC            2   10576  123456  0.0000
SPC            2   10577  123456  0.0000
SPC            2   10578  123456  0.0000
SPC            2   10579  123456  0.0000
SPC            2   10580  123456  0.0000
SPC            2   10581  123456  0.0000
SPC            2   10582  123456  0.0000
SPC            2   10583  123456  0.0000
SPC            2   10584  123456  0.0000
SPC            2   10585  123456  0.0000
SPC            2   10586  123456  0.0000
SPC            2   10587  123456  0.0000
SPC            2   10588  123456  0.0000
SPC            2   10589  123456  0.0000
SPC            2   10590  123456  0.0000
SPC            2   10591  123456  0.0000
SPC            2   10592  123456  0.0000
SPC            2   10593  123456  0.0000
SPC            2   10594  123456  0.0000
SPC            2   10595  123456  0.0000
SPC            2   10596  123456  0.0000
SPC            2   10597  123456  0.0000
SPC            2   10598  123456  0.0000
SPC            2   10599  123456  0.0000
SPC            2   10600  123456  0.0000
SPC            2   10601  123456  0.0000
SPC            2   10602  123456  0.0000
SPC            2   10603  123456  0.0000
SPC            2   10604  123456  0.0000
SPC            2   10605  123456  0.0000
SPC            2   10606  123456  0.0000
SPC            2   10607  123456  0.0000
SPC            2   10608  123456  0.0000
SPC            2   10609  123456  0.0000
SPC            2   10610  123456  0.0000
SPC            2   10611  123456  0.0000
SPC            2   10612  123456  0.0000
SPC            2   10613  123456  0.0000
SPC            2   10614  123456  0.0000
SPC            2   10615  123456  0.0000
SPC            2   10616  123456  0.0000
SPC            2   10617  123456  0.0000
SPC            2   10618  123456  0.0000
SPC            2   10619  123456  0.0000
SPC            2   10620  123456  0.0000
SPC            2   10621  123456  0.0000
SPC            2   10622  123456  0.0000
SPC            2   10623  123456  0.0000
SPC            2   10624  123456  0.0000
SPC            2   10625  123456  0.0000
SPC            2   10626  123456  0.0000
SPC            2   10627  123456  0.0000
SPC            2   10628  123456  0.0000
SPC            2   10629  123456  0.0000
SPC            2   10630  123456  0.0000
SPC            2   10631  123456  0.0000
SPC            2   10632  123456  0.0000
SPC            2   10633  123456  0.0000
SPC            2   10634  123456  0.0000
SPC            2   10635  123456  0.0000
SPC            2   10636  123456  0.0000
SPC            2   10637  123456  0.0000
SPC            2   10638  123456  0.0000
SPC            2   10639  123456  0.0000
SPC            2   10640  123456  0.0000
SPC            2   10641  123456  0.0000
SPC            2   10642  123456  0.0000
SPC            2   10643  123456  0.0000
SPC            2   10644  123456  0.0000
SPC            2   10645  123456  0.0000
SPC            2   10646  123456  0.0000
SPC            2   10647  123456  0.0000
SPC            2   10648  123456  0.0000
SPC            2   10649  123456  0.0000
SPC            2   10650  123456  0.0000
SPC            2   10651  123456  0.0000
SPC            2   10652  123456  0.0000
SPC            2   10653  123456  0.0000
SPC            2   10654  123456  0.0000
SPC            2   10655  123456  0.0000
SPC            2   10656  123456  0.0000
SPC            2   10657  123456  0.0000
SPC            2   10658  123456  0.0000
SPC            2   10659  123456  0.0000
SPC            2   10660  123456  0.0000
SPC            2   10661  123456  0.0000
SPC            2   10662  123456  0.0000
SPC            2   10663  123456  0.0000
SPC            2   10664  123456  0.0000
SPC            2   10665  123456  0.0000
SPC            2   10666  123456  0.0000
SPC            2   10667  123456  0.0000
SPC            2   10668  123456  0.0000
SPC            2   10669  123456  0.0000
SPC            2   10670  123456  0.0000
SPC            2   10671  123456  0.0000
SPC            2   10672  123456  0.0000
SPC            2   10673  123456  0.0000
SPC            2   10674  123456  0.0000
SPC            2   10675  123456  0.0000
SPC            2   10676  123456  0.0000
SPC            2   10677  123456  0.0000
SPC            2   10678  123456  0.0000
SPC            2   10679  123456  0.0000
SPC            2   10680  123456  0.0000
SPC            2   10681  123456  0.0000
SPC            2   10682  123456  0.0000
SPC            2   10683  123456  0.0000
SPC            2   10684  123456  0.0000
SPC            2   10685  123456  0.0000
SPC            2   10686  123456  0.0000
SPC            2   10687  123456  0.0000
SPC            2   10688  123456  0.0000
SPC            2   10689  123456  0.0000
SPC            2   10690  123456  0.0000
SPC            2   10691  123456  0.0000
SPC            2   10692  123456  0.0000
SPC            2   10693  123456  0.0000
SPC            2   10694  123456  0.0000
SPC            2   10695  123456  0.0000
SPC            2   10696  123456  0.0000
SPC            2   10697  123456  0.0000
SPC            2   10698  123456  0.0000
SPC            2   10699  123456  0.0000
SPC            2   10700  123456  0.0000
SPC            2   10701  123456  0.0000
SPC            2   10702  123456  0.0000
SPC            2   10703  123456  0.0000
SPC            2   10704  123456  0.0000
SPC            2   10705  123456  0.0000
SPC            2   10706  123456  0.0000
SPC            2   10707  123456  0.0000
SPC            2   10708  123456  0.0000
SPC            2   10709  123456  0.0000
SPC            2   10710  123456  0.0000
SPC            2   10711  123456  0.0000
SPC            2   10712  123456  0.0000
SPC            2   10713  123456  0.0000
SPC            2   10714  123456  0.0000
SPC            2   10715  123456  0.0000
SPC            2   10716  123456  0.0000
SPC            2   10717  123456  0.0000
SPC            2   10718  123456  0.0000
SPC            2   10719  123456  0.0000
SPC            2   10720  123456  0.0000
SPC            2   10721  123456  0.0000
SPC            2   10786  123456  0.0000
SPC            2   10787  123456  0.0000
SPC            2   10788  123456  0.0000
SPC            2   10789  123456  0.0000
SPC            2   10790  123456  0.0000
SPC            2   10791  123456  0.0000
SPC            2   10792  123456  0.0000
SPC            2   10793  123456  0.0000
SPC            2   10794  123456  0.0000
SPC            2   10795  123456  0.0000
SPC            2   10796  123456  0.0000
SPC            2   10797  123456  0.0000
SPC            2   10798  123456  0.0000
SPC            2   10799  123456  0.0000
SPC            2   10800  123456  0.0000
SPC            2   10801  123456  0.0000
SPC            2   10802  123456  0.0000
SPC            2   10803  123456  0.0000
SPC            2   10804  123456  0.0000
SPC            2   10805  123456  0.0000
SPC            2   10806  123456  0.0000
SPC            2   10807  123456  0.0000
SPC            2   10808  123456  0.0000
SPC            2   10809  123456  0.0000
SPC            2   10810  123456  0.0000
SPC            2   10811  123456  0.0000
SPC            2   10812  123456  0.0000
SPC            2   10813  123456  0.0000
SPC            2   10816  123456  0.0000
SPC            2   10818  123456  0.0000
SPC            2   10820  123456  0.0000
ENDDATA 142be2f8
